POSCAR-c3n4                             
  0.83999999999999997     
    13.8434242346000005   -0.1907404740000000    0.0000000000000000
    -6.9217121174000003   11.6951909939000007    0.0000000000000000
     0.0000000000000000    0.0000000000000000   15.0000000000000000
   C    N    Ge   C    O 
    24    32     1     1     1
Direct
  0.1081306402516040  0.2078158669964147  0.3402648366046222
  0.3004405121407623  0.4398231463224046  0.3441310149820844
  0.0738658351869181  0.3886889999058508  0.3283765492505346
  0.4756474809645570 -0.0241922507335824  0.4899157477759136
  0.4620278007111158  0.4090391910783491  0.3926383171164157
  0.1511444188771384  0.0680484952582881  0.4296291168617445
  0.0409274898316279  0.6865511176120808  0.5075399742425776
  0.2782690461131566  0.7913047797230239  0.5477250984132843
  0.1637117734201883  0.9233361099037541  0.5390727975396048
  0.4461413784371688  0.5928337622719418  0.4672487630362253
  0.4480127140304348  0.8835325743542776  0.6721361260462251
  0.0176895519008666  0.4940028938722759  0.4448092287577306
  0.6535860896135682  0.1873114451585625  0.4659268944378057
  0.7334925660773045  0.3876660194027434  0.3275718157255798
  0.6059901866894798  0.3635100708607142  0.4654295841228241
  0.9405256894934905  0.0567184902711841  0.4476217972247324
  0.9162672872711630  0.4208416406565880  0.2763127576867673
  0.6564190641706135  0.0935677721189050  0.6196654782165563
  0.6013248026511567  0.7212920695885289  0.5946912259042679
  0.8174847549924545  0.9383566584412769  0.5903895376414935
  0.6448864099985484  0.9231936239958476  0.6988062689450764
  0.8838139749434727  0.5834025038641449  0.3825471824755261
  0.0276430799158209 -0.0121488609452705  0.5952571215745172
  0.5950073141524053  0.5272722628435607  0.5490829750406657
  0.1670866819657870  0.3474003555131330  0.3111214244614137
  0.1861031148198737  0.1560880741050643  0.3503530471381254
  0.3622564635904072 -0.1319103051634342  0.4641691828032606
  0.5028539029577316  0.3219523883234202  0.3993861957216868
  0.3801658499965126  0.3954465815083416  0.3142798412948426
  0.5535101391627695  0.0779007378389412  0.4205668232266557
  0.2063425029887478  0.9943577036406435  0.4499712145887152
  0.0425637399378448  0.0440927688379085  0.4943891254601055
  0.1545563942918076  0.7969726772641309  0.5415509410809166
  0.0402584247352395  0.5685266768134837  0.5323863415450060
  0.3346943369244396  0.5478909045492369  0.4087269139131539
  0.5192617186811038  0.8513041709037847  0.7361669652620281
  0.3171951285753066  0.8061271815113066  0.6586623959557926
  0.5021594691622659  0.7049065009743266  0.5298573680879710
  0.0653643898137534  0.4127181760275955  0.4319313295543660
  0.9561525259703318  0.5163226365412235  0.3610506563114664
  0.6879978886822430  0.3173289214437558  0.4188892517901731
  0.7144009928982893  0.2079983169553992  0.5594411255344175
  0.8172927772557879  0.9827339481474108  0.4918978268801655
  0.0103336625367489  0.3937583698598430  0.2445924966020173
  0.7889791136375184  0.3512434203557572  0.2502523027184337
  0.9758111256958487  0.1431620709617392  0.3663207324906693
  0.7214876392753048  0.0630896894898589  0.6894083528754628
  0.5204260775423456 -0.0050392096127868  0.5984108576789716
  0.6876837553981120  0.8549313228283527  0.6403074405708575
  0.6425673498099923  0.6346572582888214  0.6143536223773250
  0.7625697918755970  0.5225998742995863  0.3378736914136068
  0.1078678546797991  0.9431953430997455  0.6248869863476341
  0.9166513496235178  0.9526773485885363  0.6511262812481767
 -0.0534612143012685  0.6904349160211063  0.4485988279866577
  0.6464118457091901  0.4463881240060207  0.5482076965661753
  0.5029158648959304  0.5109535872820793  0.4697481641911646
  0.2267949975368393  0.6002582745110946  0.6014837050074786
  0.2392169422249596  0.5117447259168443  0.9668900052161383
  0.2611988212072993  0.5213405971911160  0.0559506563495478

  0.00000000E+00  0.00000000E+00  0.00000000E+00
  0.00000000E+00  0.00000000E+00  0.00000000E+00
  0.00000000E+00  0.00000000E+00  0.00000000E+00
  0.00000000E+00  0.00000000E+00  0.00000000E+00
  0.00000000E+00  0.00000000E+00  0.00000000E+00
  0.00000000E+00  0.00000000E+00  0.00000000E+00
  0.00000000E+00  0.00000000E+00  0.00000000E+00
  0.00000000E+00  0.00000000E+00  0.00000000E+00
  0.00000000E+00  0.00000000E+00  0.00000000E+00
  0.00000000E+00  0.00000000E+00  0.00000000E+00
  0.00000000E+00  0.00000000E+00  0.00000000E+00
  0.00000000E+00  0.00000000E+00  0.00000000E+00
  0.00000000E+00  0.00000000E+00  0.00000000E+00
  0.00000000E+00  0.00000000E+00  0.00000000E+00
  0.00000000E+00  0.00000000E+00  0.00000000E+00
  0.00000000E+00  0.00000000E+00  0.00000000E+00
  0.00000000E+00  0.00000000E+00  0.00000000E+00
  0.00000000E+00  0.00000000E+00  0.00000000E+00
  0.00000000E+00  0.00000000E+00  0.00000000E+00
  0.00000000E+00  0.00000000E+00  0.00000000E+00
  0.00000000E+00  0.00000000E+00  0.00000000E+00
  0.00000000E+00  0.00000000E+00  0.00000000E+00
  0.00000000E+00  0.00000000E+00  0.00000000E+00
  0.00000000E+00  0.00000000E+00  0.00000000E+00
  0.00000000E+00  0.00000000E+00  0.00000000E+00
  0.00000000E+00  0.00000000E+00  0.00000000E+00
  0.00000000E+00  0.00000000E+00  0.00000000E+00
  0.00000000E+00  0.00000000E+00  0.00000000E+00
  0.00000000E+00  0.00000000E+00  0.00000000E+00
  0.00000000E+00  0.00000000E+00  0.00000000E+00
  0.00000000E+00  0.00000000E+00  0.00000000E+00
  0.00000000E+00  0.00000000E+00  0.00000000E+00
  0.00000000E+00  0.00000000E+00  0.00000000E+00
  0.00000000E+00  0.00000000E+00  0.00000000E+00
  0.00000000E+00  0.00000000E+00  0.00000000E+00
  0.00000000E+00  0.00000000E+00  0.00000000E+00
  0.00000000E+00  0.00000000E+00  0.00000000E+00
  0.00000000E+00  0.00000000E+00  0.00000000E+00
  0.00000000E+00  0.00000000E+00  0.00000000E+00
  0.00000000E+00  0.00000000E+00  0.00000000E+00
  0.00000000E+00  0.00000000E+00  0.00000000E+00
  0.00000000E+00  0.00000000E+00  0.00000000E+00
  0.00000000E+00  0.00000000E+00  0.00000000E+00
  0.00000000E+00  0.00000000E+00  0.00000000E+00
  0.00000000E+00  0.00000000E+00  0.00000000E+00
  0.00000000E+00  0.00000000E+00  0.00000000E+00
  0.00000000E+00  0.00000000E+00  0.00000000E+00
  0.00000000E+00  0.00000000E+00  0.00000000E+00
  0.00000000E+00  0.00000000E+00  0.00000000E+00
  0.00000000E+00  0.00000000E+00  0.00000000E+00
  0.00000000E+00  0.00000000E+00  0.00000000E+00
  0.00000000E+00  0.00000000E+00  0.00000000E+00
  0.00000000E+00  0.00000000E+00  0.00000000E+00
  0.00000000E+00  0.00000000E+00  0.00000000E+00
  0.00000000E+00  0.00000000E+00  0.00000000E+00
  0.00000000E+00  0.00000000E+00  0.00000000E+00
  0.00000000E+00  0.00000000E+00  0.00000000E+00
  0.00000000E+00  0.00000000E+00  0.00000000E+00
  0.00000000E+00  0.00000000E+00  0.00000000E+00
