POSCAR-clean                            
   1.0000000000000000     
    14.8605368173999999    0.0000118240000000    0.0000000000000000
    -7.4302684086999999   12.7563493950000009    0.0000000000000000
     0.0000000000000000    0.0000000000000000   15.0000000000000000
   C    N    C    Cr   C    O 
    36     1    33     1     1     1
Direct
 -0.0008910408929023  0.9999172501571236  0.4918762996528535
  0.0549922327130733  0.1117108029778860  0.4915756224356712
  0.1672606972407577  0.0020772844667750  0.4920683987545671
  0.2231514104501633  0.1136167602496435  0.4924919262777311
  0.3337084979701969  0.0024270710114419  0.4919878914875281
  0.3895711560265267  0.1140169696696360  0.4943983749645677
  0.4997930007402336  0.0013421366218389  0.4892208468846819
  0.5557425938510333  0.1131111658892735  0.4921794585094527
  0.6659115457533831  0.9994870925218373  0.4880924669903637
  0.7214979581804892  0.1107807971228990  0.4903513316778386
  0.8322587743589154  0.9990397087088153  0.4912210916315814
  0.8878992724313082  0.1104657717682317  0.4910521008993633
  0.9990296713518960  0.1668106319463326  0.4916431050495625
  0.0547162886573905  0.2784749554678602  0.4926288905956695
  0.1664971869249444  0.1680428429991483  0.4918181155037943
  0.2221364564786417  0.2794119893608577  0.4909536077908558
  0.3346884668369400  0.1703153418877676  0.4947323746877508
  0.3907308965536067  0.2820031483739038  0.4974043142922386
  0.5006977873495684  0.1697192726608154  0.4952684104006724
  0.5564749158363554  0.2814640957282411  0.4999502554049289
  0.6667418442004022  0.1673224093337734  0.4926924805870914
  0.7226150049755690  0.2788765032086758  0.4964253597025700
  0.8326217794401195  0.1663457052999881  0.4914719898506441
  0.8881315204375476  0.2774468497464919  0.4935033022104537
  0.9988779639169407  0.3341247567271057  0.4935582854268898
  0.0541172030987712  0.4453737889560045  0.4938926151497154
  0.1653804164494329  0.3338456922787889  0.4921884877250506
  0.2194771244312922  0.4449085622484772  0.4928213234407324
  0.3340237905868188  0.3364284344391378  0.4917815105669866
  0.3869678142237074  0.4466796968182460  0.4908070075437264
  0.5022890804228087  0.3398497068102088  0.5041729222139898
  0.5598204185381540  0.4516375656039226  0.5144138832901091
  0.6675101440435470  0.3342300195189696  0.5004489198436665
  0.7245653194144775  0.4452593664509897  0.5033216410867222
  0.8342207715651840  0.3341889093193045  0.4957803793957797
  0.8903327069129929  0.4453642541375514  0.4967724754997800
 -0.0002171674543874  0.5005714926434378  0.4945390940652742
  0.0550302107241376  0.6110935000403857  0.4930619088280922
  0.1644277535309571  0.5009779612875080  0.4935289874399581
  0.2210525853055311  0.6122552410143993  0.4919442119145484
  0.3298849729769495  0.5002386149509274  0.4885781051761847
  0.3865764836877102  0.6128039815723755  0.4859966072835623
  0.6705345265761389  0.5008364217173734  0.5092249639163093
  0.7255893464617280  0.6119896532513681  0.5077317546444654
  0.8357830502591054  0.5010607562465866  0.4998188375622853
  0.8902444968700468  0.6120291500810042  0.4985823430591816
  0.0005789150152024  0.6669132667417488  0.4944097285288523
  0.0561823782050484  0.7787674888481355  0.4927964184721988
  0.1654475958394214  0.6670294198411106  0.4910690038956806
  0.2214566034173405  0.7789699938422617  0.4898475866247851
  0.3312057429404245  0.6679416432016346  0.4893616278697953
  0.3880605052953702  0.7792441154789658  0.4869462395552713
  0.4967593014372346  0.6658240502134979  0.4825994398190483
  0.5537595844396550  0.7761174300311928  0.4850260912384058
  0.6647081873624157  0.6613372300530039  0.5116816169192817
  0.7186731276913885  0.7728245840335300  0.4998859716054516
  0.8354094177360732  0.6674980968024595  0.5007918742162802
  0.8896108940132533  0.7786342424048874  0.4973065318674154
  0.0004167388968160  0.8343001336326384  0.4938612986392740
  0.0558782588590039  0.9456901595870449  0.4922291062931112
  0.1667853350999238  0.8349065709771197  0.4909765494262514
  0.2227344105730646  0.9466387394787190  0.4917634494157128
  0.3327283743377150  0.8348230002057226  0.4885831297126986
  0.3887526787930203  0.9462790413683856  0.4896791971334423
  0.4990597134286029  0.8335951406567018  0.4849812814731557
  0.5548449285616378  0.9450760084240720  0.4869728350557962
  0.6651848548892340  0.8310924912264601  0.4916679339255019
  0.7207856424436503  0.9424728373370864  0.4898478963026417
  0.8314910320515437  0.8314282982332132  0.4965254490255092
  0.8876000941851538  0.9433337982106685  0.4926124020775455
  0.5134226617756890  0.5572151248391598  0.5413132451010289
  0.5193458905946933  0.5096083368142870  0.6584898957003336
  0.5239669628567826  0.4834253133044656  0.7307999186567452

  0.00000000E+00  0.00000000E+00  0.00000000E+00
  0.00000000E+00  0.00000000E+00  0.00000000E+00
  0.00000000E+00  0.00000000E+00  0.00000000E+00
  0.00000000E+00  0.00000000E+00  0.00000000E+00
  0.00000000E+00  0.00000000E+00  0.00000000E+00
  0.00000000E+00  0.00000000E+00  0.00000000E+00
  0.00000000E+00  0.00000000E+00  0.00000000E+00
  0.00000000E+00  0.00000000E+00  0.00000000E+00
  0.00000000E+00  0.00000000E+00  0.00000000E+00
  0.00000000E+00  0.00000000E+00  0.00000000E+00
  0.00000000E+00  0.00000000E+00  0.00000000E+00
  0.00000000E+00  0.00000000E+00  0.00000000E+00
  0.00000000E+00  0.00000000E+00  0.00000000E+00
  0.00000000E+00  0.00000000E+00  0.00000000E+00
  0.00000000E+00  0.00000000E+00  0.00000000E+00
  0.00000000E+00  0.00000000E+00  0.00000000E+00
  0.00000000E+00  0.00000000E+00  0.00000000E+00
  0.00000000E+00  0.00000000E+00  0.00000000E+00
  0.00000000E+00  0.00000000E+00  0.00000000E+00
  0.00000000E+00  0.00000000E+00  0.00000000E+00
  0.00000000E+00  0.00000000E+00  0.00000000E+00
  0.00000000E+00  0.00000000E+00  0.00000000E+00
  0.00000000E+00  0.00000000E+00  0.00000000E+00
  0.00000000E+00  0.00000000E+00  0.00000000E+00
  0.00000000E+00  0.00000000E+00  0.00000000E+00
  0.00000000E+00  0.00000000E+00  0.00000000E+00
  0.00000000E+00  0.00000000E+00  0.00000000E+00
  0.00000000E+00  0.00000000E+00  0.00000000E+00
  0.00000000E+00  0.00000000E+00  0.00000000E+00
  0.00000000E+00  0.00000000E+00  0.00000000E+00
  0.00000000E+00  0.00000000E+00  0.00000000E+00
  0.00000000E+00  0.00000000E+00  0.00000000E+00
  0.00000000E+00  0.00000000E+00  0.00000000E+00
  0.00000000E+00  0.00000000E+00  0.00000000E+00
  0.00000000E+00  0.00000000E+00  0.00000000E+00
  0.00000000E+00  0.00000000E+00  0.00000000E+00
  0.00000000E+00  0.00000000E+00  0.00000000E+00
  0.00000000E+00  0.00000000E+00  0.00000000E+00
  0.00000000E+00  0.00000000E+00  0.00000000E+00
  0.00000000E+00  0.00000000E+00  0.00000000E+00
  0.00000000E+00  0.00000000E+00  0.00000000E+00
  0.00000000E+00  0.00000000E+00  0.00000000E+00
  0.00000000E+00  0.00000000E+00  0.00000000E+00
  0.00000000E+00  0.00000000E+00  0.00000000E+00
  0.00000000E+00  0.00000000E+00  0.00000000E+00
  0.00000000E+00  0.00000000E+00  0.00000000E+00
  0.00000000E+00  0.00000000E+00  0.00000000E+00
  0.00000000E+00  0.00000000E+00  0.00000000E+00
  0.00000000E+00  0.00000000E+00  0.00000000E+00
  0.00000000E+00  0.00000000E+00  0.00000000E+00
  0.00000000E+00  0.00000000E+00  0.00000000E+00
  0.00000000E+00  0.00000000E+00  0.00000000E+00
  0.00000000E+00  0.00000000E+00  0.00000000E+00
  0.00000000E+00  0.00000000E+00  0.00000000E+00
  0.00000000E+00  0.00000000E+00  0.00000000E+00
  0.00000000E+00  0.00000000E+00  0.00000000E+00
  0.00000000E+00  0.00000000E+00  0.00000000E+00
  0.00000000E+00  0.00000000E+00  0.00000000E+00
  0.00000000E+00  0.00000000E+00  0.00000000E+00
  0.00000000E+00  0.00000000E+00  0.00000000E+00
  0.00000000E+00  0.00000000E+00  0.00000000E+00
  0.00000000E+00  0.00000000E+00  0.00000000E+00
  0.00000000E+00  0.00000000E+00  0.00000000E+00
  0.00000000E+00  0.00000000E+00  0.00000000E+00
  0.00000000E+00  0.00000000E+00  0.00000000E+00
  0.00000000E+00  0.00000000E+00  0.00000000E+00
  0.00000000E+00  0.00000000E+00  0.00000000E+00
  0.00000000E+00  0.00000000E+00  0.00000000E+00
  0.00000000E+00  0.00000000E+00  0.00000000E+00
  0.00000000E+00  0.00000000E+00  0.00000000E+00
  0.00000000E+00  0.00000000E+00  0.00000000E+00
  0.00000000E+00  0.00000000E+00  0.00000000E+00
  0.00000000E+00  0.00000000E+00  0.00000000E+00
