POSCAR-c3n4                             
   1.0600000000000001     
    13.8434242346000005   -0.1907404740000000    0.0000000000000000
    -6.9217121174000003   11.6951909939000007    0.0000000000000000
     0.0000000000000000    0.0000000000000000   15.0000000000000000
   C    N    Ge   C    O 
    24    32     1     1     1
Direct
  0.1074029173241229  0.2135476085831414  0.4782927288404153
  0.2864334196953209  0.3923489820798096  0.4770707681984163
  0.1046886404152190  0.3917041694305397  0.4773255501468867
  0.4456441815475500  0.0580710064565864  0.5079203402104540
  0.4436799259920932  0.3869808046611212  0.4644191448636121
  0.1101074256304031  0.0543917726190202  0.4809182881479970
  0.1060886401236019  0.7154101885290700  0.4941487766784505
  0.2870047582717987  0.8936852909593611  0.4976131096270890
  0.1043096238484864  0.8929537406700945  0.5006092742678092
  0.4504756321906811  0.5535896825612312  0.5050217028145312
  0.4441877625679922  0.8894740000785291  0.4852939794088087
  0.1033029166550747  0.5538152689937306  0.5020338932236470
  0.6089472054738465  0.2175322275013158  0.4966292140160888
  0.7859705271774686  0.3915774439226212  0.4642152291485928
  0.6060311847805693  0.3938491120991969  0.4705957493152795
  0.9450682867673379  0.0546156230078978  0.4895075995549476
  0.9415498204242922  0.3849538501780074  0.4624106454893706
  0.6128235375593931  0.0594437278642914  0.5106886067351013
  0.6104811534339305  0.7162455685736262  0.5027055948855050
  0.7879801576482137  0.8932113014163292  0.5089903321375218
  0.6059467776237710  0.8951746623351511  0.5030398252633717
  0.9442664160008789  0.5571054423720483  0.4705963369627426
  0.9434205123377524  0.8870184326880803  0.5189316077761603
  0.6152779578090488  0.5587638995715238  0.4843946042026133
  0.1669838911658346  0.3337365024863743  0.4766002949488666
  0.1623143154788380  0.1623869109153304  0.4724524404761894
  0.3383850889911031  0.9991663919248523  0.5170103935157826
  0.4992082843604635  0.3377836756036601  0.4532669633622675
  0.3371365948429599  0.3425689254000730  0.4534951082253968
  0.5019695664824440  0.1663539774523599  0.5060591211091392
  0.1588522832835935  0.9965972901098965  0.4758730247955540
  0.9990395997072881  0.9975223778792497  0.4949811701329878
  0.1666843076858697  0.8334971554698498  0.4986779846206062
  0.1557663654175556  0.6604114829587004  0.5172197830385201
  0.3408648001380925  0.4999148807542326  0.5044118621831615
  0.5002862344616119  0.8381856217890160  0.4809205472886404
  0.3365356548572720  0.8381144009066261  0.4766655143643277
  0.5036173212489814  0.6598843321414449  0.5207288199501363
  0.1584086128297315  0.4999486118687315  0.5041604872925589
  0.9967305966337250  0.4979254813578891  0.4847464917910358
  0.6668907652044567  0.3332418777366541  0.4753739541762272
  0.6650550263543096  0.1678681944485589  0.5098713057659907
  0.8377639600834215  0.9975096634969987  0.4877553362964022
  0.0031385672875146  0.3402412351333197  0.4534993611509890
  0.8357450997280509  0.3343182424905322  0.4529434063373969
  0.0010257944824090  0.1627461276158400  0.4853334645152643
  0.6609156073732834  0.0011472800058598  0.5213718079360916
  0.5006323431676307  0.0015872531401229  0.4989104292411923
  0.6670285252530448  0.8342200818824281  0.5064503541018794
  0.6642452851392520  0.6682231180593092  0.4816140665860047
  0.8393204791919189  0.5012051197650536  0.4620583092306987
  0.0014430456580001  0.8381845075208076  0.5275748134832696
  0.8368962381300307  0.8387957255162348  0.5327095918582714
  0.0056687977636756  0.6665919812739318  0.4668262810125583
  0.6639569598653736  0.5029050179259400  0.4804862761508062
  0.5015431697637638  0.4989209540665414  0.4907207094598647
  0.3131453577667429  0.6230569391188823  0.5413879060971070
  0.2968649801467009  0.5994992126339582  0.7518888107506001
  0.2249683803492104  0.5255981536436565  0.7825809067121341

  0.00000000E+00  0.00000000E+00  0.00000000E+00
  0.00000000E+00  0.00000000E+00  0.00000000E+00
  0.00000000E+00  0.00000000E+00  0.00000000E+00
  0.00000000E+00  0.00000000E+00  0.00000000E+00
  0.00000000E+00  0.00000000E+00  0.00000000E+00
  0.00000000E+00  0.00000000E+00  0.00000000E+00
  0.00000000E+00  0.00000000E+00  0.00000000E+00
  0.00000000E+00  0.00000000E+00  0.00000000E+00
  0.00000000E+00  0.00000000E+00  0.00000000E+00
  0.00000000E+00  0.00000000E+00  0.00000000E+00
  0.00000000E+00  0.00000000E+00  0.00000000E+00
  0.00000000E+00  0.00000000E+00  0.00000000E+00
  0.00000000E+00  0.00000000E+00  0.00000000E+00
  0.00000000E+00  0.00000000E+00  0.00000000E+00
  0.00000000E+00  0.00000000E+00  0.00000000E+00
  0.00000000E+00  0.00000000E+00  0.00000000E+00
  0.00000000E+00  0.00000000E+00  0.00000000E+00
  0.00000000E+00  0.00000000E+00  0.00000000E+00
  0.00000000E+00  0.00000000E+00  0.00000000E+00
  0.00000000E+00  0.00000000E+00  0.00000000E+00
  0.00000000E+00  0.00000000E+00  0.00000000E+00
  0.00000000E+00  0.00000000E+00  0.00000000E+00
  0.00000000E+00  0.00000000E+00  0.00000000E+00
  0.00000000E+00  0.00000000E+00  0.00000000E+00
  0.00000000E+00  0.00000000E+00  0.00000000E+00
  0.00000000E+00  0.00000000E+00  0.00000000E+00
  0.00000000E+00  0.00000000E+00  0.00000000E+00
  0.00000000E+00  0.00000000E+00  0.00000000E+00
  0.00000000E+00  0.00000000E+00  0.00000000E+00
  0.00000000E+00  0.00000000E+00  0.00000000E+00
  0.00000000E+00  0.00000000E+00  0.00000000E+00
  0.00000000E+00  0.00000000E+00  0.00000000E+00
  0.00000000E+00  0.00000000E+00  0.00000000E+00
  0.00000000E+00  0.00000000E+00  0.00000000E+00
  0.00000000E+00  0.00000000E+00  0.00000000E+00
  0.00000000E+00  0.00000000E+00  0.00000000E+00
  0.00000000E+00  0.00000000E+00  0.00000000E+00
  0.00000000E+00  0.00000000E+00  0.00000000E+00
  0.00000000E+00  0.00000000E+00  0.00000000E+00
  0.00000000E+00  0.00000000E+00  0.00000000E+00
  0.00000000E+00  0.00000000E+00  0.00000000E+00
  0.00000000E+00  0.00000000E+00  0.00000000E+00
  0.00000000E+00  0.00000000E+00  0.00000000E+00
  0.00000000E+00  0.00000000E+00  0.00000000E+00
  0.00000000E+00  0.00000000E+00  0.00000000E+00
  0.00000000E+00  0.00000000E+00  0.00000000E+00
  0.00000000E+00  0.00000000E+00  0.00000000E+00
  0.00000000E+00  0.00000000E+00  0.00000000E+00
  0.00000000E+00  0.00000000E+00  0.00000000E+00
  0.00000000E+00  0.00000000E+00  0.00000000E+00
  0.00000000E+00  0.00000000E+00  0.00000000E+00
  0.00000000E+00  0.00000000E+00  0.00000000E+00
  0.00000000E+00  0.00000000E+00  0.00000000E+00
  0.00000000E+00  0.00000000E+00  0.00000000E+00
  0.00000000E+00  0.00000000E+00  0.00000000E+00
  0.00000000E+00  0.00000000E+00  0.00000000E+00
  0.00000000E+00  0.00000000E+00  0.00000000E+00
  0.00000000E+00  0.00000000E+00  0.00000000E+00
  0.00000000E+00  0.00000000E+00  0.00000000E+00
