POSCAR-c3n4                             
   1.0600000000000001     
    13.8434242346000005   -0.1907404740000000    0.0000000000000000
    -6.9217121174000003   11.6951909939000007    0.0000000000000000
     0.0000000000000000    0.0000000000000000   15.0000000000000000
   C    N    Ge   C    O 
    24    32     1     1     1
Direct
  0.1074029173241249  0.2135476085831421  0.4782927288404172
  0.2864334196953181  0.3923489820798071  0.4770707681984166
  0.1046886404152195  0.3917041694305364  0.4773255501468839
  0.4456441815475476  0.0580710064565894  0.5079203402104556
  0.4436799259920948  0.3869808046611239  0.4644191448636097
  0.1101074256304052  0.0543917726190228  0.4809182881480004
  0.1060886401235987  0.7154101885290735  0.4941487766784489
  0.2870047582717956  0.8936852909593618  0.4976131096270904
  0.1043096238484871  0.8929537406700945  0.5006092742678097
  0.4504756321906811  0.5535896825612329  0.5050217028145331
  0.4441877625679909  0.8894740000785283  0.4852939794088101
  0.1033029166550778  0.5538152689937287  0.5020338932236482
  0.6089472054738436  0.2175322275013181  0.4966292140160902
  0.7859705271774718  0.3915774439226211  0.4642152291485963
  0.6060311847805664  0.3938491120992001  0.4705957493152796
  0.9450682867673382  0.0546156230078967  0.4895075995549511
  0.9415498204242905  0.3849538501780082  0.4624106454893711
  0.6128235375593917  0.0594437278642918  0.5106886067351016
  0.6104811534339321  0.7162455685736288  0.5027055948855059
  0.7879801576482153  0.8932113014163269  0.5089903321375241
  0.6059467776237717  0.8951746623351481  0.5030398252633752
  0.9442664160008791  0.5571054423720516  0.4705963369627407
  0.9434205123377541  0.8870184326880783  0.5189316077761633
  0.6152779578090511  0.5587638995715235  0.4843946042026122
  0.1669838911658363  0.3337365024863758  0.4766002949488683
  0.1623143154788370  0.1623869109153270  0.4724524404761908
  0.3383850889911051 -0.0008336080751495  0.5170103935157836
  0.4992082843604656  0.3377836756036570  0.4532669633622707
  0.3371365948429572  0.3425689254000759  0.4534951082253971
  0.5019695664824421  0.1663539774523621  0.5060591211091386
  0.1588522832835907  0.9965972901098957  0.4758730247955540
 -0.0009604002927093 -0.0024776221207523  0.4949811701329862
  0.1666843076858722  0.8334971554698480  0.4986779846206043
  0.1557663654175586  0.6604114829586987  0.5172197830385225
  0.3408648001380923  0.4999148807542338  0.5044118621831625
  0.5002862344616129  0.8381856217890167  0.4809205472886407
  0.3365356548572702  0.8381144009066267  0.4766655143643254
  0.5036173212489818  0.6598843321414450  0.5207288199501392
  0.1584086128297334  0.4999486118687297  0.5041604872925565
  0.9967305966337238  0.4979254813578899  0.4847464917910349
  0.6668907652044536  0.3332418777366544  0.4753739541762271
  0.6650550263543065  0.1678681944485568  0.5098713057659912
  0.8377639600834198  0.9975096634970011  0.4877553362964024
  0.0031385672875142  0.3402412351333177  0.4534993611509901
  0.8357450997280502  0.3343182424905343  0.4529434063373974
  0.0010257944824097  0.1627461276158416  0.4853334645152637
  0.6609156073732825  0.0011472800058564  0.5213718079360918
  0.5006323431676339  0.0015872531401230  0.4989104292411888
  0.6670285252530421  0.8342200818824304  0.5064503541018816
  0.6642452851392490  0.6682231180593072  0.4816140665860032
  0.8393204791919193  0.5012051197650527  0.4620583092306987
  0.0014430456580028  0.8381845075208062  0.5275748134832692
  0.8368962381300301  0.8387957255162362  0.5327095918582719
  0.0056687977636758  0.6665919812739320  0.4668262810125555
  0.6639569598653712  0.5029050179259376  0.4804862761508072
  0.5015431697637626  0.4989209540665435  0.4907207094598642
  0.3131453577667409  0.6230569391188823  0.5413879060971063
  0.2968649801467019  0.5994992126339591  0.7518888107505987
  0.2249683803492107  0.5255981536436599  0.7825809067121348

  0.00000000E+00  0.00000000E+00  0.00000000E+00
  0.00000000E+00  0.00000000E+00  0.00000000E+00
  0.00000000E+00  0.00000000E+00  0.00000000E+00
  0.00000000E+00  0.00000000E+00  0.00000000E+00
  0.00000000E+00  0.00000000E+00  0.00000000E+00
  0.00000000E+00  0.00000000E+00  0.00000000E+00
  0.00000000E+00  0.00000000E+00  0.00000000E+00
  0.00000000E+00  0.00000000E+00  0.00000000E+00
  0.00000000E+00  0.00000000E+00  0.00000000E+00
  0.00000000E+00  0.00000000E+00  0.00000000E+00
  0.00000000E+00  0.00000000E+00  0.00000000E+00
  0.00000000E+00  0.00000000E+00  0.00000000E+00
  0.00000000E+00  0.00000000E+00  0.00000000E+00
  0.00000000E+00  0.00000000E+00  0.00000000E+00
  0.00000000E+00  0.00000000E+00  0.00000000E+00
  0.00000000E+00  0.00000000E+00  0.00000000E+00
  0.00000000E+00  0.00000000E+00  0.00000000E+00
  0.00000000E+00  0.00000000E+00  0.00000000E+00
  0.00000000E+00  0.00000000E+00  0.00000000E+00
  0.00000000E+00  0.00000000E+00  0.00000000E+00
  0.00000000E+00  0.00000000E+00  0.00000000E+00
  0.00000000E+00  0.00000000E+00  0.00000000E+00
  0.00000000E+00  0.00000000E+00  0.00000000E+00
  0.00000000E+00  0.00000000E+00  0.00000000E+00
  0.00000000E+00  0.00000000E+00  0.00000000E+00
  0.00000000E+00  0.00000000E+00  0.00000000E+00
  0.00000000E+00  0.00000000E+00  0.00000000E+00
  0.00000000E+00  0.00000000E+00  0.00000000E+00
  0.00000000E+00  0.00000000E+00  0.00000000E+00
  0.00000000E+00  0.00000000E+00  0.00000000E+00
  0.00000000E+00  0.00000000E+00  0.00000000E+00
  0.00000000E+00  0.00000000E+00  0.00000000E+00
  0.00000000E+00  0.00000000E+00  0.00000000E+00
  0.00000000E+00  0.00000000E+00  0.00000000E+00
  0.00000000E+00  0.00000000E+00  0.00000000E+00
  0.00000000E+00  0.00000000E+00  0.00000000E+00
  0.00000000E+00  0.00000000E+00  0.00000000E+00
  0.00000000E+00  0.00000000E+00  0.00000000E+00
  0.00000000E+00  0.00000000E+00  0.00000000E+00
  0.00000000E+00  0.00000000E+00  0.00000000E+00
  0.00000000E+00  0.00000000E+00  0.00000000E+00
  0.00000000E+00  0.00000000E+00  0.00000000E+00
  0.00000000E+00  0.00000000E+00  0.00000000E+00
  0.00000000E+00  0.00000000E+00  0.00000000E+00
  0.00000000E+00  0.00000000E+00  0.00000000E+00
  0.00000000E+00  0.00000000E+00  0.00000000E+00
  0.00000000E+00  0.00000000E+00  0.00000000E+00
  0.00000000E+00  0.00000000E+00  0.00000000E+00
  0.00000000E+00  0.00000000E+00  0.00000000E+00
  0.00000000E+00  0.00000000E+00  0.00000000E+00
  0.00000000E+00  0.00000000E+00  0.00000000E+00
  0.00000000E+00  0.00000000E+00  0.00000000E+00
  0.00000000E+00  0.00000000E+00  0.00000000E+00
  0.00000000E+00  0.00000000E+00  0.00000000E+00
  0.00000000E+00  0.00000000E+00  0.00000000E+00
  0.00000000E+00  0.00000000E+00  0.00000000E+00
  0.00000000E+00  0.00000000E+00  0.00000000E+00
  0.00000000E+00  0.00000000E+00  0.00000000E+00
  0.00000000E+00  0.00000000E+00  0.00000000E+00
