POSCAR-c3n4                             
   1.2000000000000000     
    13.8434242346000005   -0.1907404740000000    0.0000000000000000
    -6.9217121174000003   11.6951909939000007    0.0000000000000000
     0.0000000000000000    0.0000000000000000   15.0000000000000000
   C    N    Ge   C    O 
    24    32     1     1     1
Direct
  0.0482140515256891  0.1179583022740519  0.4737631246619091
  0.2744271832145809  0.5130383766866068  0.4869555898502047
  0.1816173213596278  0.5074324853855566  0.4879391744978383
  0.5569746179492319  0.0774922522641292  0.4789275111601239
  0.3707471922256411  0.4580471806256765  0.4554376272607674
  0.0427341282398186  0.9778569625902328  0.4999405701958017
  0.0473409242567135  0.6943975774122995  0.5179907054062730
  0.4089141984170395  0.9495206585050087  0.4639307192752046
  0.0232869908612297  0.8292086754698931  0.5208568692212296
  0.4361286535628676  0.6160319322939186  0.5129803977525511
  0.5191764226768121  0.9110759245944747  0.4774539170401292
  0.1158128028523044  0.6029605242762370  0.5104932533465323
  0.7132310521466330  0.1967606850963812  0.4982394137805968
  0.8585792673038030  0.3639487474714259  0.4839999156624813
  0.4767421554858426  0.4175906916802186  0.4284252290120786
  0.9015905650774505  0.9843191822361116  0.4746684485226962
  0.0201479229888478  0.4323865789803779  0.4766748104571716
  0.6732905351929676  0.0403989152208284  0.5209572092816468
  0.5941637935313855  0.7194528828157682  0.5124127311025557
  0.7626337635737842  0.8521497060357656  0.5044046999036099
  0.6342567755246189  0.8851075881147920  0.5120205649214080
  0.9488678859748748  0.5305470859814073  0.4959848565510061
  0.8887619095939449  0.8363642281327253  0.5215883552837032
  0.5429057158014224  0.5692669012502179  0.4688237575107137
  0.1025364171255821  0.2157342179668684  0.4710347299894396
  0.0956039770137063  0.0739623496755447  0.4903654658957940
  0.4625175136660550  0.0412042514682535  0.4663155227283854
  0.3871026167849716  0.3922207112809534  0.4285325247236358
  0.2829247399740393  0.4428252282780143  0.4606743463150433
  0.6205850949002348  0.1683440940676290  0.4805859673653646
  0.0815265771197732  0.9265308294718911  0.5110655074177275
  0.9436939008273769  0.9330926853281093  0.4985995176952068
  0.0724293241236786  0.7854181876763814  0.5226032685189104
  0.1268380807227345  0.6851007715309120  0.5272694621351058
  0.3465627689559158  0.5989891971064066  0.5143191964942094
  0.5511944351548869  0.8519979348602363  0.4772108575004271
  0.4266121609505114  0.8788764480379950  0.4657172263617509
  0.5075198985190426  0.6953440397711290  0.5394996699960608
  0.1939112725418771  0.5942037028103143  0.5085935172379858
  0.0303196267117070  0.5218240955577900  0.4936309980539466
  0.7725552814167614  0.2890344987691237  0.4898753705100389
  0.7360561670666215  0.1326636355236701  0.5267964924152487
  0.8072840724930280  0.9358589504243446  0.4685914446562207
  0.1019427460915236  0.4293695036052925  0.4712649435537026
  0.9369322981819777  0.3554790362933421  0.4682299065225581
  0.9541764793468799  0.0775633104318542  0.4606241451530646
  0.6908282580290666  0.9706428440200207  0.5410429708851668
  0.5818729738023696  0.0080090264754019  0.4913163415794843
  0.6630666523475627  0.8159163176287600  0.5151211021868761
  0.6138247336864466  0.6577357807490943  0.4809062227803712
  0.8650684395246188  0.4506022435888207  0.4913211253389230
  0.9280997864373675  0.7848865274886285  0.5323825126907533
  0.7953145008785167  0.8004897169211749  0.5329235963581989
  0.9604376057396431  0.6174178236352813  0.5033548806434135
  0.5541134634345378  0.4974651586991611  0.4447757441953976
  0.4487802728695271  0.5471761630920731  0.4782379900140269
  0.3158430799306511  0.7048959297006118  0.5457148424579824
  0.2600529476120400  0.5844814686846714  0.6786363467488409
  0.2514472882746518  0.5566517856313939  0.7379967910958648

  0.00000000E+00  0.00000000E+00  0.00000000E+00
  0.00000000E+00  0.00000000E+00  0.00000000E+00
  0.00000000E+00  0.00000000E+00  0.00000000E+00
  0.00000000E+00  0.00000000E+00  0.00000000E+00
  0.00000000E+00  0.00000000E+00  0.00000000E+00
  0.00000000E+00  0.00000000E+00  0.00000000E+00
  0.00000000E+00  0.00000000E+00  0.00000000E+00
  0.00000000E+00  0.00000000E+00  0.00000000E+00
  0.00000000E+00  0.00000000E+00  0.00000000E+00
  0.00000000E+00  0.00000000E+00  0.00000000E+00
  0.00000000E+00  0.00000000E+00  0.00000000E+00
  0.00000000E+00  0.00000000E+00  0.00000000E+00
  0.00000000E+00  0.00000000E+00  0.00000000E+00
  0.00000000E+00  0.00000000E+00  0.00000000E+00
  0.00000000E+00  0.00000000E+00  0.00000000E+00
  0.00000000E+00  0.00000000E+00  0.00000000E+00
  0.00000000E+00  0.00000000E+00  0.00000000E+00
  0.00000000E+00  0.00000000E+00  0.00000000E+00
  0.00000000E+00  0.00000000E+00  0.00000000E+00
  0.00000000E+00  0.00000000E+00  0.00000000E+00
  0.00000000E+00  0.00000000E+00  0.00000000E+00
  0.00000000E+00  0.00000000E+00  0.00000000E+00
  0.00000000E+00  0.00000000E+00  0.00000000E+00
  0.00000000E+00  0.00000000E+00  0.00000000E+00
  0.00000000E+00  0.00000000E+00  0.00000000E+00
  0.00000000E+00  0.00000000E+00  0.00000000E+00
  0.00000000E+00  0.00000000E+00  0.00000000E+00
  0.00000000E+00  0.00000000E+00  0.00000000E+00
  0.00000000E+00  0.00000000E+00  0.00000000E+00
  0.00000000E+00  0.00000000E+00  0.00000000E+00
  0.00000000E+00  0.00000000E+00  0.00000000E+00
  0.00000000E+00  0.00000000E+00  0.00000000E+00
  0.00000000E+00  0.00000000E+00  0.00000000E+00
  0.00000000E+00  0.00000000E+00  0.00000000E+00
  0.00000000E+00  0.00000000E+00  0.00000000E+00
  0.00000000E+00  0.00000000E+00  0.00000000E+00
  0.00000000E+00  0.00000000E+00  0.00000000E+00
  0.00000000E+00  0.00000000E+00  0.00000000E+00
  0.00000000E+00  0.00000000E+00  0.00000000E+00
  0.00000000E+00  0.00000000E+00  0.00000000E+00
  0.00000000E+00  0.00000000E+00  0.00000000E+00
  0.00000000E+00  0.00000000E+00  0.00000000E+00
  0.00000000E+00  0.00000000E+00  0.00000000E+00
  0.00000000E+00  0.00000000E+00  0.00000000E+00
  0.00000000E+00  0.00000000E+00  0.00000000E+00
  0.00000000E+00  0.00000000E+00  0.00000000E+00
  0.00000000E+00  0.00000000E+00  0.00000000E+00
  0.00000000E+00  0.00000000E+00  0.00000000E+00
  0.00000000E+00  0.00000000E+00  0.00000000E+00
  0.00000000E+00  0.00000000E+00  0.00000000E+00
  0.00000000E+00  0.00000000E+00  0.00000000E+00
  0.00000000E+00  0.00000000E+00  0.00000000E+00
  0.00000000E+00  0.00000000E+00  0.00000000E+00
  0.00000000E+00  0.00000000E+00  0.00000000E+00
  0.00000000E+00  0.00000000E+00  0.00000000E+00
  0.00000000E+00  0.00000000E+00  0.00000000E+00
  0.00000000E+00  0.00000000E+00  0.00000000E+00
  0.00000000E+00  0.00000000E+00  0.00000000E+00
  0.00000000E+00  0.00000000E+00  0.00000000E+00
