POSCAR-clean                            
   1.00000000000000     
    14.8588663937156369    0.0008149543821254    0.0000000000000000
    -7.4294331968078833   12.7557954064635890    0.0000000000000000
     0.0000000000000000    0.0000000000000000   15.0000000000000000
   C    N    C    Cr
    65     1     4     1
Direct
 -0.0000987720512850  0.9998703671197223  0.4976465332214629
  0.0556976298407621  0.1113470690410765  0.4977184703023702
  0.1681702162502746  0.0019908849469790  0.4975407960459236
  0.2236110001527906  0.1133857506140204  0.4982524847582396
  0.3350250995209120  0.0020860380413195  0.4977388222319580
  0.3902256709119580  0.1132219774889770  0.4983883992601983
  0.5005499791782174  0.9993062729796265  0.4977900798696624
  0.5560907584973754  0.1106049178672413  0.4976954712822986
  0.6647100710158902  0.9973193622193884  0.4982467141135687
  0.7205223134393259  0.1084045987275558  0.4975500117572075
  0.8316562442804059  0.9979055085509947  0.4983640221298531
  0.8876170908075133  0.1091217131517794  0.4977424405337812
  0.9990057983649449  0.1654901359822490  0.4978187482627524
  0.0543191018587166  0.2767038313380131  0.4984875330320284
  0.1674281724635887  0.1681051999357117  0.4983521897957220
  0.2230815086157826  0.2797527479579394  0.5000836640112609
  0.3353079702279639  0.1701652673552886  0.4993977663978765
  0.3908220364447071  0.2813136883555667  0.5024941892454574
  0.5008256299564753  0.1673119368426588  0.4984184379317391
  0.5568484009532075  0.2792179702197310  0.5000296496942449
  0.6667484931088263  0.1656525489966431  0.4975354131769434
  0.7224578218303412  0.2765193508802298  0.4980165416975335
  0.8320042660848056  0.1641928459409525  0.4976218144715405
  0.8878814881771293  0.2758936190557224  0.4977610863051256
  0.9989311941308241  0.3320423136492187  0.4983158435118907
  0.0545240385710618  0.4438542689726162  0.4987603380891587
  0.1654961038031347  0.3329683711891360  0.5000338824452374
  0.2193709847235179  0.4440382918875417  0.5018061626927904
  0.3354037643861000  0.3379130681668352  0.5033877276562169
  0.3877630910790488  0.4487570079896230  0.5091976750210819
  0.5027800643944468  0.3375783588271263  0.5035286731703554
  0.5612294325349677  0.4483674768163931  0.5097572917825323
  0.6675586700250087  0.3327244622895930  0.4996619404655135
  0.7247739698477558  0.4437808323942827  0.5013210448424619
  0.8333606939429173  0.3320985268631463  0.4979062863105987
  0.8894843442076880  0.4436970441962692  0.4982413241394661
  0.0001344247568943  0.4998370776231986  0.4982551175687255
  0.0558555499771499  0.6112905993049139  0.4982675617349707
  0.1648352870135047  0.5000838140009075  0.5003588385103376
  0.2206975310229965  0.6116666033116509  0.5003187096061323
  0.3292124573271188  0.4995441010471356  0.5052695681673315
  0.3854111897824435  0.6122454471303485  0.5052262318725355
  0.6704411258702738  0.4992029136985569  0.5053201619795823
  0.7267239017737830  0.6118993433652631  0.5052333661054164
  0.8354404259220838  0.4997669300875149  0.4995809681961350
  0.8911663797100665  0.6113036248291858  0.4995744292502339
  0.0013741454593972  0.6673795199989941  0.4982614404377713
  0.0567981761025024  0.7790362261413587  0.4979093053101916
  0.1664137567546484  0.6673051474572785  0.4987741611522018
  0.2226826078513768  0.7790351178699023  0.4983037787576380
  0.3316439925273217  0.6678679936488823  0.5016261419047361
  0.3888180169352023  0.7792813438799980  0.4999523248141365
  0.4946296950923137  0.6636242925648189  0.5097493390220517
  0.5531892819633640  0.7744709450398792  0.5035813329964230
  0.6679364312123325  0.6623873776769291  0.5095492275993539
  0.7202500399586176  0.7734141076155133  0.5034829983275758
  0.8365051964435463  0.6673002159245718  0.5012428023802127
  0.8903757221030736  0.7783974771187970  0.4996423314598727
  0.0014464755403052  0.8345343690209641  0.4980239880798104
  0.0567263324841309  0.9457186956288575  0.4975257954816306
  0.1677421936714017  0.8350154964380615  0.4977416243123998
  0.2236947228991691  0.9463205943940892  0.4976103106896595
  0.3331293883987355  0.8342911950508902  0.4984588671991351
  0.3899801576270102  0.9453917287094870  0.4978336509977652
  0.4994805453585532  0.8326266918852766  0.5001283770188377
  0.5548847520567467  0.9431628169447890  0.4983809724710170
  0.6651626216864189  0.8297459803017041  0.5024769000579404
  0.7196022014492318  0.9407016557785863  0.4993450965770795
  0.8327474920109591  0.8316536766539464  0.5000363804251241
  0.8879866463294530  0.9431274908165901  0.4984252713621674
  0.5279169544677075  0.5558856643195501  0.5545831375310981
 
  0.00000000E+00  0.00000000E+00  0.00000000E+00
  0.00000000E+00  0.00000000E+00  0.00000000E+00
  0.00000000E+00  0.00000000E+00  0.00000000E+00
  0.00000000E+00  0.00000000E+00  0.00000000E+00
  0.00000000E+00  0.00000000E+00  0.00000000E+00
  0.00000000E+00  0.00000000E+00  0.00000000E+00
  0.00000000E+00  0.00000000E+00  0.00000000E+00
  0.00000000E+00  0.00000000E+00  0.00000000E+00
  0.00000000E+00  0.00000000E+00  0.00000000E+00
  0.00000000E+00  0.00000000E+00  0.00000000E+00
  0.00000000E+00  0.00000000E+00  0.00000000E+00
  0.00000000E+00  0.00000000E+00  0.00000000E+00
  0.00000000E+00  0.00000000E+00  0.00000000E+00
  0.00000000E+00  0.00000000E+00  0.00000000E+00
  0.00000000E+00  0.00000000E+00  0.00000000E+00
  0.00000000E+00  0.00000000E+00  0.00000000E+00
  0.00000000E+00  0.00000000E+00  0.00000000E+00
  0.00000000E+00  0.00000000E+00  0.00000000E+00
  0.00000000E+00  0.00000000E+00  0.00000000E+00
  0.00000000E+00  0.00000000E+00  0.00000000E+00
  0.00000000E+00  0.00000000E+00  0.00000000E+00
  0.00000000E+00  0.00000000E+00  0.00000000E+00
  0.00000000E+00  0.00000000E+00  0.00000000E+00
  0.00000000E+00  0.00000000E+00  0.00000000E+00
  0.00000000E+00  0.00000000E+00  0.00000000E+00
  0.00000000E+00  0.00000000E+00  0.00000000E+00
  0.00000000E+00  0.00000000E+00  0.00000000E+00
  0.00000000E+00  0.00000000E+00  0.00000000E+00
  0.00000000E+00  0.00000000E+00  0.00000000E+00
  0.00000000E+00  0.00000000E+00  0.00000000E+00
  0.00000000E+00  0.00000000E+00  0.00000000E+00
  0.00000000E+00  0.00000000E+00  0.00000000E+00
  0.00000000E+00  0.00000000E+00  0.00000000E+00
  0.00000000E+00  0.00000000E+00  0.00000000E+00
  0.00000000E+00  0.00000000E+00  0.00000000E+00
  0.00000000E+00  0.00000000E+00  0.00000000E+00
  0.00000000E+00  0.00000000E+00  0.00000000E+00
  0.00000000E+00  0.00000000E+00  0.00000000E+00
  0.00000000E+00  0.00000000E+00  0.00000000E+00
  0.00000000E+00  0.00000000E+00  0.00000000E+00
  0.00000000E+00  0.00000000E+00  0.00000000E+00
  0.00000000E+00  0.00000000E+00  0.00000000E+00
  0.00000000E+00  0.00000000E+00  0.00000000E+00
  0.00000000E+00  0.00000000E+00  0.00000000E+00
  0.00000000E+00  0.00000000E+00  0.00000000E+00
  0.00000000E+00  0.00000000E+00  0.00000000E+00
  0.00000000E+00  0.00000000E+00  0.00000000E+00
  0.00000000E+00  0.00000000E+00  0.00000000E+00
  0.00000000E+00  0.00000000E+00  0.00000000E+00
  0.00000000E+00  0.00000000E+00  0.00000000E+00
  0.00000000E+00  0.00000000E+00  0.00000000E+00
  0.00000000E+00  0.00000000E+00  0.00000000E+00
  0.00000000E+00  0.00000000E+00  0.00000000E+00
  0.00000000E+00  0.00000000E+00  0.00000000E+00
  0.00000000E+00  0.00000000E+00  0.00000000E+00
  0.00000000E+00  0.00000000E+00  0.00000000E+00
  0.00000000E+00  0.00000000E+00  0.00000000E+00
  0.00000000E+00  0.00000000E+00  0.00000000E+00
  0.00000000E+00  0.00000000E+00  0.00000000E+00
  0.00000000E+00  0.00000000E+00  0.00000000E+00
  0.00000000E+00  0.00000000E+00  0.00000000E+00
  0.00000000E+00  0.00000000E+00  0.00000000E+00
  0.00000000E+00  0.00000000E+00  0.00000000E+00
  0.00000000E+00  0.00000000E+00  0.00000000E+00
  0.00000000E+00  0.00000000E+00  0.00000000E+00
  0.00000000E+00  0.00000000E+00  0.00000000E+00
  0.00000000E+00  0.00000000E+00  0.00000000E+00
  0.00000000E+00  0.00000000E+00  0.00000000E+00
  0.00000000E+00  0.00000000E+00  0.00000000E+00
  0.00000000E+00  0.00000000E+00  0.00000000E+00
  0.00000000E+00  0.00000000E+00  0.00000000E+00
