POSCAR-clean                            
   1.00000000000000     
    14.8530717796976450    0.0235212199401306    0.0000000000000000
    -7.4265358897989096   12.7416551812045551    0.0000000000000000
     0.0000000000000000    0.0000000000000000   15.0000000000000000
   C    N    C    Cr
    28     1    41     1
Direct
  0.0002938906887051  0.0000878066105487  0.4976151410827900
  0.0560518983895785  0.1117485470856654  0.4976435528877001
  0.1680048370443176  0.0019313492499085  0.4975768323173747
  0.2234357140992883  0.1130438361839668  0.4983517395538335
  0.3342230803426428  0.0022480547866906  0.4976960995955013
  0.3898452979547681  0.1139760888577944  0.4984669667144284
  0.4999883941989481 -0.0000141606990182  0.4977596309352298
  0.5556127340152307  0.1116882843563842  0.4976931820153728
  0.6658121891414828  0.9980129827853991  0.4982659113645669
  0.7214643130387983  0.1093915073998258  0.4974929234966840
  0.8324096142499685  0.9980666338064587  0.4983658329139367
  0.8878677094740869  0.1093136253495645  0.4976974605419676
  0.9993359234170416  0.1656283299544038  0.4977864182114335
  0.0548885825425108  0.2766263396323556  0.4984636510890222
  0.1679686328365981  0.1683727364124843  0.4982413404533624
  0.2232477568184209  0.2793317231263748  0.4998387387666725
  0.3345721747287507  0.1706545496740653  0.4995210609476520
  0.3898061910753943  0.2821599885286958  0.5024362944185981
  0.5006753210984579  0.1687607740326550  0.4985589583284899
  0.5558709700614471  0.2802600357732204  0.5000940665284026
  0.6663654141696913  0.1658117828800939  0.4975176558597750
  0.7220448017379069  0.2769917159952870  0.4980975219769720
  0.8324985578018473  0.1650538576317541  0.4975598263391524
  0.8882858796195473  0.2765036407679204  0.4976896100968520
  0.9993459752910397  0.3323108807799910  0.4982548502917450
  0.0546138537330828  0.4436773289275674  0.4986212634572046
  0.1661139768865538  0.3328301801124798  0.4998169951709457
  0.2194895666500664  0.4437692770820151  0.5013269232493570
  0.3341257692606535  0.3368283430982150  0.5037617031692523
  0.3868473761002343  0.4458418269589369  0.5115792972209872
  0.5014650957407258  0.3394249641793280  0.5031412738745626
  0.5607879883277919  0.4503068938872318  0.5084136679764432
  0.6669376118699718  0.3332031172475263  0.4997385844923098
  0.7246013287215018  0.4443079800634014  0.5011974007919492
  0.8331900740766558  0.3324057996918299  0.4978961484951281
  0.8895108074452088  0.4438207581312640  0.4983298563908582
  0.0000913305358237  0.4997339496533144  0.4981959738329479
  0.0560581535990801  0.6112449931243064  0.4980576333643309
  0.1649468280349310  0.4995976254203082  0.5001244335803021
  0.2209386451199243  0.6110458524738028  0.5005488888284065
  0.3288906680238014  0.4975838226569831  0.5053560606565867
  0.3860090222597837  0.6104304338323655  0.5052960559517063
  0.6705945111320315  0.4999871300999825  0.5045420415827200
  0.7268914462497971  0.6120624413178773  0.5053579302185609
  0.8353218368945888  0.4999780969723893  0.4997935795946036
  0.8912076625022869  0.6112786665180601  0.4998541113222309
  0.0015358124942962  0.6672966855609184  0.4981654842745692
  0.0568739483243620  0.7788257327523120  0.4978560617968801
  0.1666628545249556  0.6671660015830142  0.4986483287719766
  0.2227055918162436  0.7787041779709490  0.4982069450705283
  0.3315273577709879  0.6664217362549348  0.5023564064315548
  0.3883704703331074  0.7777409198388026  0.5003123322707105
  0.4956821566417476  0.6619741829455628  0.5081348865334594
  0.5534994699565822  0.7729989246399629  0.5028912913185845
  0.6679625630496442  0.6627614630254763  0.5102652893374682
  0.7205805608208816  0.7734469124446354  0.5035735511779167
  0.8366346478765440  0.6673981592057906  0.5017651653645128
  0.8905391725438423  0.7784519159711289  0.4998788736196388
  0.0014753152694612  0.8345241182932355  0.4980717189759913
  0.0566883380393090  0.9456291157251429  0.4974985066387753
  0.1676900902198778  0.8347058707487365  0.4976502768453767
  0.2233813927164114  0.9462163560647369  0.4976004720289735
  0.3334934695562555  0.8341862621224676  0.4985032597605145
  0.3891965525823396  0.9455926655640269  0.4977531681008195
  0.4991964971045280  0.8312731025240561  0.5000516385569236
  0.5548920555308791  0.9430582917322022  0.4984345272671453
  0.6653040794951995  0.8299613347892424  0.5024307316713037
  0.7207612463302381  0.9412936686653327  0.4994518782356785
  0.8329847943912044  0.8316686870551462  0.4999381503527056
  0.8886378944225708  0.9432698445464370  0.4983159524232337
  0.5273944223045006  0.5553333796936341  0.5552699922391333
 
  0.00000000E+00  0.00000000E+00  0.00000000E+00
  0.00000000E+00  0.00000000E+00  0.00000000E+00
  0.00000000E+00  0.00000000E+00  0.00000000E+00
  0.00000000E+00  0.00000000E+00  0.00000000E+00
  0.00000000E+00  0.00000000E+00  0.00000000E+00
  0.00000000E+00  0.00000000E+00  0.00000000E+00
  0.00000000E+00  0.00000000E+00  0.00000000E+00
  0.00000000E+00  0.00000000E+00  0.00000000E+00
  0.00000000E+00  0.00000000E+00  0.00000000E+00
  0.00000000E+00  0.00000000E+00  0.00000000E+00
  0.00000000E+00  0.00000000E+00  0.00000000E+00
  0.00000000E+00  0.00000000E+00  0.00000000E+00
  0.00000000E+00  0.00000000E+00  0.00000000E+00
  0.00000000E+00  0.00000000E+00  0.00000000E+00
  0.00000000E+00  0.00000000E+00  0.00000000E+00
  0.00000000E+00  0.00000000E+00  0.00000000E+00
  0.00000000E+00  0.00000000E+00  0.00000000E+00
  0.00000000E+00  0.00000000E+00  0.00000000E+00
  0.00000000E+00  0.00000000E+00  0.00000000E+00
  0.00000000E+00  0.00000000E+00  0.00000000E+00
  0.00000000E+00  0.00000000E+00  0.00000000E+00
  0.00000000E+00  0.00000000E+00  0.00000000E+00
  0.00000000E+00  0.00000000E+00  0.00000000E+00
  0.00000000E+00  0.00000000E+00  0.00000000E+00
  0.00000000E+00  0.00000000E+00  0.00000000E+00
  0.00000000E+00  0.00000000E+00  0.00000000E+00
  0.00000000E+00  0.00000000E+00  0.00000000E+00
  0.00000000E+00  0.00000000E+00  0.00000000E+00
  0.00000000E+00  0.00000000E+00  0.00000000E+00
  0.00000000E+00  0.00000000E+00  0.00000000E+00
  0.00000000E+00  0.00000000E+00  0.00000000E+00
  0.00000000E+00  0.00000000E+00  0.00000000E+00
  0.00000000E+00  0.00000000E+00  0.00000000E+00
  0.00000000E+00  0.00000000E+00  0.00000000E+00
  0.00000000E+00  0.00000000E+00  0.00000000E+00
  0.00000000E+00  0.00000000E+00  0.00000000E+00
  0.00000000E+00  0.00000000E+00  0.00000000E+00
  0.00000000E+00  0.00000000E+00  0.00000000E+00
  0.00000000E+00  0.00000000E+00  0.00000000E+00
  0.00000000E+00  0.00000000E+00  0.00000000E+00
  0.00000000E+00  0.00000000E+00  0.00000000E+00
  0.00000000E+00  0.00000000E+00  0.00000000E+00
  0.00000000E+00  0.00000000E+00  0.00000000E+00
  0.00000000E+00  0.00000000E+00  0.00000000E+00
  0.00000000E+00  0.00000000E+00  0.00000000E+00
  0.00000000E+00  0.00000000E+00  0.00000000E+00
  0.00000000E+00  0.00000000E+00  0.00000000E+00
  0.00000000E+00  0.00000000E+00  0.00000000E+00
  0.00000000E+00  0.00000000E+00  0.00000000E+00
  0.00000000E+00  0.00000000E+00  0.00000000E+00
  0.00000000E+00  0.00000000E+00  0.00000000E+00
  0.00000000E+00  0.00000000E+00  0.00000000E+00
  0.00000000E+00  0.00000000E+00  0.00000000E+00
  0.00000000E+00  0.00000000E+00  0.00000000E+00
  0.00000000E+00  0.00000000E+00  0.00000000E+00
  0.00000000E+00  0.00000000E+00  0.00000000E+00
  0.00000000E+00  0.00000000E+00  0.00000000E+00
  0.00000000E+00  0.00000000E+00  0.00000000E+00
  0.00000000E+00  0.00000000E+00  0.00000000E+00
  0.00000000E+00  0.00000000E+00  0.00000000E+00
  0.00000000E+00  0.00000000E+00  0.00000000E+00
  0.00000000E+00  0.00000000E+00  0.00000000E+00
  0.00000000E+00  0.00000000E+00  0.00000000E+00
  0.00000000E+00  0.00000000E+00  0.00000000E+00
  0.00000000E+00  0.00000000E+00  0.00000000E+00
  0.00000000E+00  0.00000000E+00  0.00000000E+00
  0.00000000E+00  0.00000000E+00  0.00000000E+00
  0.00000000E+00  0.00000000E+00  0.00000000E+00
  0.00000000E+00  0.00000000E+00  0.00000000E+00
  0.00000000E+00  0.00000000E+00  0.00000000E+00
  0.00000000E+00  0.00000000E+00  0.00000000E+00
