POSCAR-clean                            
   1.00000000000000     
    14.8611638413693825   -0.0032735932060556    0.0000000000000000
    -7.4305819206347490   12.7543763650500477    0.0000000000000000
     0.0000000000000000    0.0000000000000000   15.0000000000000000
   C    N    C    Cr
    48     1    21     1
Direct
  0.0002006508179869  0.9998832054184262  0.4976473944020146
  0.0559268591081196  0.1114190013687237  0.4977189828645548
  0.1679942597481807  0.0016279277814144  0.4975475873303337
  0.2235630505124179  0.1131986067187142  0.4982612911628650
  0.3341177422799359  0.0016446943455808  0.4977506335004575
  0.3900344403261774  0.1132638718740394  0.4983947039140678
  0.4995878117120807  0.9994316649125616  0.4977164069026530
  0.5556024207819277  0.1111064882956297  0.4976542722335168
  0.6655887975145145  0.9977529870846454  0.4982670925461166
  0.7214909077940137  0.1092457458060166  0.4975473078564709
  0.8322846294385600  0.9977764764978542  0.4983834942572115
  0.8879563470490464  0.1093228658174203  0.4977458320339648
  0.9992207449025663  0.1656722545318486  0.4978258154699733
  0.0545721838680094  0.2769071005946137  0.4985047863013677
  0.1674362874421433  0.1681209330455306  0.4983562210918067
  0.2230862106659124  0.2799829200063039  0.5000652647956101
  0.3352268449377895  0.1701225791283059  0.4993977613003889
  0.3908811576537377  0.2814415040261396  0.5024588746861721
  0.5008294719130502  0.1679706265055475  0.4984366630550836
  0.5568740372011840  0.2796629230447692  0.5000665691277879
  0.6666200435954788  0.1654896008262442  0.4975247113339509
  0.7227830540274816  0.2769565411631179  0.4980269002990906
  0.8325797127090863  0.1650220007907843  0.4976198379865284
  0.8882777258330741  0.2764836694770000  0.4977578428272805
  0.9992030716957979  0.3324520774426319  0.4983149880151327
  0.0544107339728746  0.4437006706285543  0.4987504930802698
  0.1654852521173457  0.3333606097763736  0.5000136380547588
  0.2193721417500214  0.4446954689214978  0.5016737041852442
  0.3354158808853308  0.3380936032973590  0.5033997108687535
  0.3876048408000554  0.4488710561209623  0.5095620670709842
  0.5027118788148413  0.3377663979149347  0.5034958212411960
  0.5612782364959301  0.4485710306454240  0.5097259109297190
  0.6678078554154478  0.3329712744664656  0.4996630952807274
  0.7250297131043090  0.4439799461805498  0.5012524065421691
  0.8337005153855974  0.3326627819042091  0.4979094733968718
  0.8901524137959685  0.4445723464502592  0.4982619634720367
  0.0010326848138610  0.5006182448871467  0.4982906109224667
  0.0569044031291129  0.6119411302675914  0.4983225089048889
  0.1643578624116356  0.5006858501191679  0.5002771245752047
  0.2196856392338287  0.6118690777298814  0.5003515285465774
  0.3287745657676200  0.4994764759741806  0.5052374783767798
  0.3843051507167750  0.6117278454274939  0.5052240235565232
  0.6705924325284848  0.4993111164250358  0.5052582711656489
  0.7271673873374114  0.6119035587800623  0.5052349237633927
  0.8357281422819751  0.5000059288828081  0.4995610700306440
  0.8918810355232155  0.6112378762428424  0.4995641839918543
  0.0023084614264979  0.6676359558755037  0.4983026543456680
  0.0566700134785625  0.7790822326333509  0.4979233276380214
  0.1661652022196840  0.6672519019294799  0.4988110837710432
  0.2219199355331049  0.7778499667927490  0.4983183529013471
  0.3301271621559030  0.6675445002750117  0.5016654345028019
  0.3882689073984327  0.7783394213073952  0.4999706464332961
  0.4937977314096548  0.6623921134514670  0.5095332156779743
  0.5527796795429790  0.7729899077609189  0.5034189633123428
  0.6685591321978961  0.6626083988571768  0.5096703800963402
  0.7204864058534434  0.7732380223668107  0.5035287693682597
  0.8370476963417106  0.6672299100427226  0.5012217379947718
  0.8904442941580962  0.7781551703847878  0.4996314435034472
  0.0015554479085067  0.8343873398600713  0.4980211029157943
  0.0569076341962278  0.9457180399305481  0.4975270982079670
  0.1672253349971246  0.8338379678781774  0.4977526527595783
  0.2233673654794454  0.9456348824839897  0.4976231218459143
  0.3324577906450919  0.8333751627845557  0.4984891488739226
  0.3884145812425867  0.9449910434252486  0.4978318874739632
  0.4986826930948497  0.8313300362688115  0.5000260685132386
  0.5547775753880607  0.9431268551296523  0.4983540261187785
  0.6648752054314454  0.8295915018724508  0.5025077691205195
  0.7205122458382343  0.9408712212024800  0.4994016890839674
  0.8328577038481485  0.8314238250494191  0.5000480193577269
  0.8885073678563913  0.9430886063680620  0.4984250528121983
  0.5281673636649414  0.5555453606520555  0.5546350891332885
 
  0.00000000E+00  0.00000000E+00  0.00000000E+00
  0.00000000E+00  0.00000000E+00  0.00000000E+00
  0.00000000E+00  0.00000000E+00  0.00000000E+00
  0.00000000E+00  0.00000000E+00  0.00000000E+00
  0.00000000E+00  0.00000000E+00  0.00000000E+00
  0.00000000E+00  0.00000000E+00  0.00000000E+00
  0.00000000E+00  0.00000000E+00  0.00000000E+00
  0.00000000E+00  0.00000000E+00  0.00000000E+00
  0.00000000E+00  0.00000000E+00  0.00000000E+00
  0.00000000E+00  0.00000000E+00  0.00000000E+00
  0.00000000E+00  0.00000000E+00  0.00000000E+00
  0.00000000E+00  0.00000000E+00  0.00000000E+00
  0.00000000E+00  0.00000000E+00  0.00000000E+00
  0.00000000E+00  0.00000000E+00  0.00000000E+00
  0.00000000E+00  0.00000000E+00  0.00000000E+00
  0.00000000E+00  0.00000000E+00  0.00000000E+00
  0.00000000E+00  0.00000000E+00  0.00000000E+00
  0.00000000E+00  0.00000000E+00  0.00000000E+00
  0.00000000E+00  0.00000000E+00  0.00000000E+00
  0.00000000E+00  0.00000000E+00  0.00000000E+00
  0.00000000E+00  0.00000000E+00  0.00000000E+00
  0.00000000E+00  0.00000000E+00  0.00000000E+00
  0.00000000E+00  0.00000000E+00  0.00000000E+00
  0.00000000E+00  0.00000000E+00  0.00000000E+00
  0.00000000E+00  0.00000000E+00  0.00000000E+00
  0.00000000E+00  0.00000000E+00  0.00000000E+00
  0.00000000E+00  0.00000000E+00  0.00000000E+00
  0.00000000E+00  0.00000000E+00  0.00000000E+00
  0.00000000E+00  0.00000000E+00  0.00000000E+00
  0.00000000E+00  0.00000000E+00  0.00000000E+00
  0.00000000E+00  0.00000000E+00  0.00000000E+00
  0.00000000E+00  0.00000000E+00  0.00000000E+00
  0.00000000E+00  0.00000000E+00  0.00000000E+00
  0.00000000E+00  0.00000000E+00  0.00000000E+00
  0.00000000E+00  0.00000000E+00  0.00000000E+00
  0.00000000E+00  0.00000000E+00  0.00000000E+00
  0.00000000E+00  0.00000000E+00  0.00000000E+00
  0.00000000E+00  0.00000000E+00  0.00000000E+00
  0.00000000E+00  0.00000000E+00  0.00000000E+00
  0.00000000E+00  0.00000000E+00  0.00000000E+00
  0.00000000E+00  0.00000000E+00  0.00000000E+00
  0.00000000E+00  0.00000000E+00  0.00000000E+00
  0.00000000E+00  0.00000000E+00  0.00000000E+00
  0.00000000E+00  0.00000000E+00  0.00000000E+00
  0.00000000E+00  0.00000000E+00  0.00000000E+00
  0.00000000E+00  0.00000000E+00  0.00000000E+00
  0.00000000E+00  0.00000000E+00  0.00000000E+00
  0.00000000E+00  0.00000000E+00  0.00000000E+00
  0.00000000E+00  0.00000000E+00  0.00000000E+00
  0.00000000E+00  0.00000000E+00  0.00000000E+00
  0.00000000E+00  0.00000000E+00  0.00000000E+00
  0.00000000E+00  0.00000000E+00  0.00000000E+00
  0.00000000E+00  0.00000000E+00  0.00000000E+00
  0.00000000E+00  0.00000000E+00  0.00000000E+00
  0.00000000E+00  0.00000000E+00  0.00000000E+00
  0.00000000E+00  0.00000000E+00  0.00000000E+00
  0.00000000E+00  0.00000000E+00  0.00000000E+00
  0.00000000E+00  0.00000000E+00  0.00000000E+00
  0.00000000E+00  0.00000000E+00  0.00000000E+00
  0.00000000E+00  0.00000000E+00  0.00000000E+00
  0.00000000E+00  0.00000000E+00  0.00000000E+00
  0.00000000E+00  0.00000000E+00  0.00000000E+00
  0.00000000E+00  0.00000000E+00  0.00000000E+00
  0.00000000E+00  0.00000000E+00  0.00000000E+00
  0.00000000E+00  0.00000000E+00  0.00000000E+00
  0.00000000E+00  0.00000000E+00  0.00000000E+00
  0.00000000E+00  0.00000000E+00  0.00000000E+00
  0.00000000E+00  0.00000000E+00  0.00000000E+00
  0.00000000E+00  0.00000000E+00  0.00000000E+00
  0.00000000E+00  0.00000000E+00  0.00000000E+00
  0.00000000E+00  0.00000000E+00  0.00000000E+00
