POSCAR-clean                            
   1.00000000000000     
    14.8408194831008267    0.0016245414959561    0.0000000000000000
    -7.4204097415005412   12.7517140135859695    0.0000000000000000
     0.0000000000000000    0.0000000000000000   15.0000000000000000
   C    N    C    Cr
    21     1    48     1
Direct
  0.9999666866560041  0.9998392864624286  0.4976994404788753
  0.0557653980604060  0.1114027928799092  0.4977846272283298
  0.1679150448280071  0.0018337139367668  0.4975051030849081
  0.2235681845247496  0.1132713280071381  0.4982530842656725
  0.3343891236985305  0.0017510283980244  0.4975825790320493
  0.3902771814333461  0.1133370456493595  0.4982671294419971
  0.5008007885678577  0.0004636884949863  0.4977801766377918
  0.5565521964724710  0.1123779643862638  0.4977011556641876
  0.6658212428461288  0.9986871871969535  0.4983401963954903
  0.7218487813901644  0.1104209864553901  0.4976256359772558
  0.8322652196660354  0.9980015733873947  0.4983372360058406
  0.8879581194419663  0.1095859480418548  0.4976285140977323
  0.9993030716921097  0.1658427153665351  0.4977673607409921
  0.0542893106704652  0.2769337348264296  0.4985151774924316
  0.1674521122676537  0.1680527400663003  0.4984498908214412
  0.2231065656464215  0.2795979718600120  0.5000397000478738
  0.3353823552978842  0.1701696976762225  0.4993180880484345
  0.3911851856588179  0.2812031805489463  0.5023117288301391
  0.5007583812552255  0.1679288867734498  0.4983086525682081
  0.5575910146085896  0.2794052469750336  0.4999666405005554
  0.6672034174609920  0.1667619122179705  0.4976929516504512
  0.7225622673997644  0.2768952690299365  0.4982494110909449
  0.8328700111227810  0.1651302529563153  0.4975402816581744
  0.8874522508340249  0.2762929352819067  0.4976416056354416
  0.9987746250599553  0.3325044538860768  0.4982098311783518
  0.0544334168642522  0.4438405453889923  0.4987095745887666
  0.1655302485657208  0.3329832851104852  0.5002131566009007
  0.2194078686874203  0.4439299740351454  0.5020961258790118
  0.3356167117708447  0.3376677287523561  0.5029956645996689
  0.3879126814789708  0.4484011338869199  0.5087550033628527
  0.5034605217029124  0.3379921772639660  0.5035861351739025
  0.5612093796638122  0.4485792212650079  0.5102342785552815
  0.6682165085258853  0.3324472827467065  0.4998643812391204
  0.7250031951220902  0.4431973481767825  0.5014153523791366
  0.8323536754816702  0.3319008294257514  0.4979514448442730
  0.8885040754645249  0.4431367202117089  0.4982393179538901
  0.9995925318252609  0.4992340443452697  0.4980860134630970
  0.0554040913344041  0.6108397663624145  0.4980803811294510
  0.1647327377596798  0.4998611541120391  0.5006071191585996
  0.2204151168108270  0.6112122553170050  0.5005886331255917
  0.3293286259080093  0.4993492505539323  0.5052113994483214
  0.3855684704198858  0.6119239533482611  0.5052918164301156
  0.6702527503062926  0.4985141121991025  0.5054125024606793
  0.7264300753028490  0.6113474951513274  0.5052258143096601
  0.8354859863315178  0.5000261467797429  0.4997177024605711
  0.8908581576873622  0.6110152170940549  0.4997448735661829
  0.0011759738532507  0.6670956113072568  0.4982385623935913
  0.0564477232146929  0.7785827056363233  0.4978708247689275
  0.1661638571963906  0.6670259821237668  0.4986625280410815
  0.2225124128450450  0.7787821160677739  0.4981505874816748
  0.3311737274921148  0.6672932522038379  0.5021315440205030
  0.3883457440805602  0.7783579830176475  0.5002471251350988
  0.4951395126163872  0.6630455199049027  0.5091019154897489
  0.5533070547513959  0.7737694273628042  0.5030705176238465
  0.6675357280125844  0.6619272888482393  0.5096158448063597
  0.7201762808527423  0.7731661255698178  0.5033047360108572
  0.8361153734127393  0.6669854892899092  0.5013805080047324
  0.8900380556233058  0.7780394938405537  0.4998056392723682
  0.0010938940785159  0.8341332522494561  0.4981381110958396
  0.0565419593843622  0.9455090320413505  0.4975688502781827
  0.1675527693272367  0.8345846085342529  0.4975565975732111
  0.2233024931999643  0.9460464915730302  0.4974620967470925
  0.3335357787429009  0.8344937131834961  0.4984892710954014
  0.3895818814764589  0.9458784014448381  0.4977374364932355
  0.4991844758538123  0.8318343749370335  0.5000918083233267
  0.5551619616084715  0.9435913119591985  0.4984839134056721
  0.6652261303109703  0.8302417269137982  0.5022186074638708
  0.7207586720084541  0.9416163043545585  0.4993606748629675
  0.8324220042923919  0.8313453870852435  0.5000231931945894
  0.8881741110568377  0.9431042323900737  0.4984152064578989
  0.5267772222507756  0.5556788880018277  0.5549909896705600
 
  0.00000000E+00  0.00000000E+00  0.00000000E+00
  0.00000000E+00  0.00000000E+00  0.00000000E+00
  0.00000000E+00  0.00000000E+00  0.00000000E+00
  0.00000000E+00  0.00000000E+00  0.00000000E+00
  0.00000000E+00  0.00000000E+00  0.00000000E+00
  0.00000000E+00  0.00000000E+00  0.00000000E+00
  0.00000000E+00  0.00000000E+00  0.00000000E+00
  0.00000000E+00  0.00000000E+00  0.00000000E+00
  0.00000000E+00  0.00000000E+00  0.00000000E+00
  0.00000000E+00  0.00000000E+00  0.00000000E+00
  0.00000000E+00  0.00000000E+00  0.00000000E+00
  0.00000000E+00  0.00000000E+00  0.00000000E+00
  0.00000000E+00  0.00000000E+00  0.00000000E+00
  0.00000000E+00  0.00000000E+00  0.00000000E+00
  0.00000000E+00  0.00000000E+00  0.00000000E+00
  0.00000000E+00  0.00000000E+00  0.00000000E+00
  0.00000000E+00  0.00000000E+00  0.00000000E+00
  0.00000000E+00  0.00000000E+00  0.00000000E+00
  0.00000000E+00  0.00000000E+00  0.00000000E+00
  0.00000000E+00  0.00000000E+00  0.00000000E+00
  0.00000000E+00  0.00000000E+00  0.00000000E+00
  0.00000000E+00  0.00000000E+00  0.00000000E+00
  0.00000000E+00  0.00000000E+00  0.00000000E+00
  0.00000000E+00  0.00000000E+00  0.00000000E+00
  0.00000000E+00  0.00000000E+00  0.00000000E+00
  0.00000000E+00  0.00000000E+00  0.00000000E+00
  0.00000000E+00  0.00000000E+00  0.00000000E+00
  0.00000000E+00  0.00000000E+00  0.00000000E+00
  0.00000000E+00  0.00000000E+00  0.00000000E+00
  0.00000000E+00  0.00000000E+00  0.00000000E+00
  0.00000000E+00  0.00000000E+00  0.00000000E+00
  0.00000000E+00  0.00000000E+00  0.00000000E+00
  0.00000000E+00  0.00000000E+00  0.00000000E+00
  0.00000000E+00  0.00000000E+00  0.00000000E+00
  0.00000000E+00  0.00000000E+00  0.00000000E+00
  0.00000000E+00  0.00000000E+00  0.00000000E+00
  0.00000000E+00  0.00000000E+00  0.00000000E+00
  0.00000000E+00  0.00000000E+00  0.00000000E+00
  0.00000000E+00  0.00000000E+00  0.00000000E+00
  0.00000000E+00  0.00000000E+00  0.00000000E+00
  0.00000000E+00  0.00000000E+00  0.00000000E+00
  0.00000000E+00  0.00000000E+00  0.00000000E+00
  0.00000000E+00  0.00000000E+00  0.00000000E+00
  0.00000000E+00  0.00000000E+00  0.00000000E+00
  0.00000000E+00  0.00000000E+00  0.00000000E+00
  0.00000000E+00  0.00000000E+00  0.00000000E+00
  0.00000000E+00  0.00000000E+00  0.00000000E+00
  0.00000000E+00  0.00000000E+00  0.00000000E+00
  0.00000000E+00  0.00000000E+00  0.00000000E+00
  0.00000000E+00  0.00000000E+00  0.00000000E+00
  0.00000000E+00  0.00000000E+00  0.00000000E+00
  0.00000000E+00  0.00000000E+00  0.00000000E+00
  0.00000000E+00  0.00000000E+00  0.00000000E+00
  0.00000000E+00  0.00000000E+00  0.00000000E+00
  0.00000000E+00  0.00000000E+00  0.00000000E+00
  0.00000000E+00  0.00000000E+00  0.00000000E+00
  0.00000000E+00  0.00000000E+00  0.00000000E+00
  0.00000000E+00  0.00000000E+00  0.00000000E+00
  0.00000000E+00  0.00000000E+00  0.00000000E+00
  0.00000000E+00  0.00000000E+00  0.00000000E+00
  0.00000000E+00  0.00000000E+00  0.00000000E+00
  0.00000000E+00  0.00000000E+00  0.00000000E+00
  0.00000000E+00  0.00000000E+00  0.00000000E+00
  0.00000000E+00  0.00000000E+00  0.00000000E+00
  0.00000000E+00  0.00000000E+00  0.00000000E+00
  0.00000000E+00  0.00000000E+00  0.00000000E+00
  0.00000000E+00  0.00000000E+00  0.00000000E+00
  0.00000000E+00  0.00000000E+00  0.00000000E+00
  0.00000000E+00  0.00000000E+00  0.00000000E+00
  0.00000000E+00  0.00000000E+00  0.00000000E+00
  0.00000000E+00  0.00000000E+00  0.00000000E+00
