POSCAR-clean
1.0
14.8530717797 0.0235212199 0.0
-7.4265358898 12.7416551812 0.0
0.0 0.0 15.0
C N C Cr C O
28 1 41 1 1 1
Cartesian
0.0037130806 0.0011257142 7.2532225047
0.0026382746 1.425179863 7.2536486818
2.4810446694 0.0285602649 7.2526478733
2.4791825931 1.4456210616 7.2642714818
4.9475441432 0.0365052735 7.2544368824
4.943952679 1.4614136601 7.2659998892
-6.72168e-05 12.7532350874 7.2553898525
7.4230987678 1.4361622964 7.2543931187
2.477577002 12.731998008 7.262984059
9.9035612723 1.4107985878 7.251389241
4.9516620742 12.7366001854 7.2644828822
12.3757412578 1.4137202525 7.2544572966
13.6131634658 2.1338846686 7.2557916617
-1.239111383 3.5259684801 7.2659501548
1.2444239904 2.1492981764 7.2626154953
1.2414478897 3.5643995568 7.28657647
3.7020523888 2.1822909728 7.2818113027
3.6943480547 3.6043539969 7.3255398048
6.1832585375 2.1620680852 7.2673797634
6.1750302044 3.5840515002 7.2904063864
8.6661661717 2.1283902899 7.2517602264
8.6674943484 3.5463163079 7.2604582182
11.1393824381 2.1226407219 7.2523927836
11.1403097191 3.5440076146 7.25433954
12.3754388211 4.2576964923 7.2628181429
-2.4838021171 5.6544681214 7.2683143404
-0.0044724555 4.2447145923 7.2862503161
-0.0355741747 5.659517771 7.3088992372
2.4613262556 4.2996096487 7.345420936
2.4348115159 5.6898619467 7.4626848468
4.9275453837 4.3366309243 7.3361144966
4.9852039349 5.7508455852 7.4152004081
7.4315273129 4.2612464115 7.2850741559
7.4628863871 5.6782625834 7.3069564004
9.906808375 4.2549977269 7.2574376159
9.9159170829 5.6759334417 7.2639432344
-3.7099355734 6.367439817 7.261934996
-3.7067970997 7.7895914898 7.259859889
-1.260312619 6.3695804231 7.2908618922
-1.2563363988 7.7909322986 7.2972287209
1.1897125827 6.3477774018 7.3693362983
1.2000361902 7.7869735031 7.3684362278
6.2472160428 6.3864368078 7.3571260122
6.25106714 7.8157859502 7.3693643418
8.6939899213 6.3901962984 7.2858990824
8.6974884262 7.8096642798 7.2868070583
-4.9328912512 8.5025003952 7.2614776526
-4.9392244193 9.9248666776 7.2568363155
-2.4792769139 8.5047192545 7.2687203201
-2.4752123843 9.9272184311 7.2620995646
-0.0250053001 8.4991138965 7.324341485
-0.0074263812 9.9188415681 7.2936803726
2.4462276247 8.446305827 7.4110186865
2.4804631007 9.862304736 7.3323647583
4.9992741036 8.4603893236 7.4429747286
4.9588035388 9.8719427932 7.3425986562
7.4701380962 8.5234358807 7.315472869
7.44604116 9.9397124562 7.2871784928
-6.1757103518 10.6332532569 7.2600711731
-6.1807526124 12.0502135007 7.2514729881
-3.7082601598 10.6394786583 7.2537495412
-3.7092098676 12.0616167387 7.2530024689
-1.2417117731 10.6367578821 7.2665442849
-1.241713536 12.0575700642 7.25529291
1.2411218735 10.6035369444 7.2897699669
1.2381952811 12.0291753071 7.2655132975
3.7180716081 10.5907299052 7.3254563636
3.7149673146 12.0105925342 7.280773562
6.1959655897 10.616428454 7.2880676438
6.1937750777 12.0397209494 7.2637346748
3.7092239356 7.0882713949 8.1180452721
3.7092239356 7.0882713949 14.0980452721
3.388209989 6.3624277022 14.9433824558