POSCAR-clean                            
   1.00000000000000     
    14.8480619358292785   -0.0000351717570359    0.0000000000000000
    -7.4240309678647423   12.7474195851106433    0.0000000000000000
     0.0000000000000000    0.0000000000000000   15.0000000000000000
   C    N    C    Cr
    17     1    52     1
Direct
  0.0001915758618057  0.9998457865833699  0.4976487940489637
  0.0561727808705187  0.1116064882362147  0.4977226534578097
  0.1687280862469389  0.0025718818012377  0.4975561755969676
  0.2246067744044012  0.1144093941706063  0.4984686839975477
  0.3340849679093963  0.0025607598415637  0.4977453610736255
  0.3900472653159453  0.1143967531859319  0.4985937664363493
  0.4998933337213417  0.9998274407013638  0.4977341728543133
  0.5556716520181209  0.1115875972888643  0.4976541360056843
  0.6658809642924647  0.9979762665484501  0.4982620100471757
  0.7216156054354371  0.1093544792139751  0.4975136729242636
  0.8323546139896794  0.9979882460832106  0.4983779852570058
  0.8879932064629502  0.1093636387853261  0.4977028501475517
  0.9995434365602068  0.1658224042186786  0.4977918861773410
  0.0550942076939346  0.2768377875009906  0.4985095406762375
  0.1675391785955796  0.1684091666569281  0.4984411816112733
  0.2239364403011170  0.2795319922745860  0.4999172820747816
  0.3355884961718738  0.1709231293838392  0.4997848514709231
  0.3908798008713367  0.2814934991175853  0.5025001880790390
  0.5011122328933971  0.1683935279541917  0.4984755802848391
  0.5558452976964161  0.2795256439763827  0.4998598237318720
  0.6665176913981555  0.1658083402448673  0.4975100605213749
  0.7219801402296666  0.2768254117687309  0.4980713693916003
  0.8326541349186239  0.1650640844438943  0.4975965296539216
  0.8884000624676081  0.2765593344827894  0.4977457996958332
  0.9993716099710591  0.3323908893758781  0.4983033925678160
  0.0546216202915582  0.4437846353527226  0.4987244731378494
  0.1662699806356392  0.3329845831715854  0.5000142603338935
  0.2200015148317256  0.4439454111390788  0.5017750670126996
  0.3367150350309629  0.3379703127659722  0.5030080670962183
  0.3895885198010649  0.4480196689387919  0.5091322193392662
  0.5015339240326894  0.3379930048402711  0.5031173888091462
  0.5587128090594345  0.4480493392622634  0.5093963262010979
  0.6669562612512246  0.3329757936251814  0.4996544149193064
  0.7241767195957940  0.4439436649104207  0.5012994771059017
  0.8332546654332978  0.3323855056540703  0.4979244280649714
  0.8893942112567382  0.4437832256349259  0.4982474009177774
 -0.0000172551128060  0.4997350915403710  0.4982554411686034
  0.0558027583538333  0.6113762842138984  0.4982075524572716
  0.1650944542200978  0.4998302861366599  0.5003127135836266
  0.2205771507956801  0.6110791642989928  0.5003695778109586
  0.3295386646213557  0.4987526717046447  0.5051110724063451
  0.3853685626646637  0.6108939058956409  0.5052652454342463
  0.6694756046595953  0.4987537113344901  0.5050568306878978
  0.7257882762144398  0.6108927956885752  0.5052101022101521
  0.8349667541192285  0.4998312515445818  0.4996021863476273
  0.8907304533224284  0.6110770126925268  0.4996588909911169
  0.0013040141899427  0.6674104264498518  0.4982022011027388
  0.0567714147732867  0.7788962506127597  0.4978888777342126
  0.1663355358878516  0.6674073913405246  0.4986877957567361
  0.2223570429170364  0.7788897185631141  0.4982734128233581
  0.3310688334519434  0.6667671741246796  0.5020048281075841
  0.3880742432191400  0.7780731211956328  0.5001042318683039
  0.4952942455712310  0.6620321585612817  0.5092400208394123
  0.5532115208669399  0.7729290615487577  0.5032503020061720
  0.6669871050949769  0.6619965416666780  0.5095028101190343
  0.7199689100015728  0.7729043311832319  0.5033806495904184
  0.8359345986788150  0.6667692814434056  0.5015312903674054
  0.8902484861625176  0.7780828883514761  0.4997478405098064
  0.0014067542646191  0.8345962160554175  0.4980283350281174
  0.0570383536980604  0.9459467305055497  0.4974945178701557
  0.1675523811029977  0.8348682659082405  0.4977293946327818
  0.2234373188709966  0.9466331208759104  0.4976024422570317
  0.3334231082952608  0.8345830615983982  0.4984652632954522
  0.3891460666010539  0.9459306313945368  0.4977800342446008
  0.4988952617947029  0.8312933645511557  0.5000265364559822
  0.5546735536613803  0.9429628067027229  0.4983857080501984
  0.6649855147137060  0.8297038459314506  0.5024852520615097
  0.7207324921641169  0.9412057917270273  0.4994450345977028
  0.8326506371505729  0.8312966479797632  0.4999847562352492
  0.8885473711176327  0.9429751713277134  0.4984114128082439
  0.5279211554899588  0.5559346383451593  0.5561761468309903
 
  0.00000000E+00  0.00000000E+00  0.00000000E+00
  0.00000000E+00  0.00000000E+00  0.00000000E+00
  0.00000000E+00  0.00000000E+00  0.00000000E+00
  0.00000000E+00  0.00000000E+00  0.00000000E+00
  0.00000000E+00  0.00000000E+00  0.00000000E+00
  0.00000000E+00  0.00000000E+00  0.00000000E+00
  0.00000000E+00  0.00000000E+00  0.00000000E+00
  0.00000000E+00  0.00000000E+00  0.00000000E+00
  0.00000000E+00  0.00000000E+00  0.00000000E+00
  0.00000000E+00  0.00000000E+00  0.00000000E+00
  0.00000000E+00  0.00000000E+00  0.00000000E+00
  0.00000000E+00  0.00000000E+00  0.00000000E+00
  0.00000000E+00  0.00000000E+00  0.00000000E+00
  0.00000000E+00  0.00000000E+00  0.00000000E+00
  0.00000000E+00  0.00000000E+00  0.00000000E+00
  0.00000000E+00  0.00000000E+00  0.00000000E+00
  0.00000000E+00  0.00000000E+00  0.00000000E+00
  0.00000000E+00  0.00000000E+00  0.00000000E+00
  0.00000000E+00  0.00000000E+00  0.00000000E+00
  0.00000000E+00  0.00000000E+00  0.00000000E+00
  0.00000000E+00  0.00000000E+00  0.00000000E+00
  0.00000000E+00  0.00000000E+00  0.00000000E+00
  0.00000000E+00  0.00000000E+00  0.00000000E+00
  0.00000000E+00  0.00000000E+00  0.00000000E+00
  0.00000000E+00  0.00000000E+00  0.00000000E+00
  0.00000000E+00  0.00000000E+00  0.00000000E+00
  0.00000000E+00  0.00000000E+00  0.00000000E+00
  0.00000000E+00  0.00000000E+00  0.00000000E+00
  0.00000000E+00  0.00000000E+00  0.00000000E+00
  0.00000000E+00  0.00000000E+00  0.00000000E+00
  0.00000000E+00  0.00000000E+00  0.00000000E+00
  0.00000000E+00  0.00000000E+00  0.00000000E+00
  0.00000000E+00  0.00000000E+00  0.00000000E+00
  0.00000000E+00  0.00000000E+00  0.00000000E+00
  0.00000000E+00  0.00000000E+00  0.00000000E+00
  0.00000000E+00  0.00000000E+00  0.00000000E+00
  0.00000000E+00  0.00000000E+00  0.00000000E+00
  0.00000000E+00  0.00000000E+00  0.00000000E+00
  0.00000000E+00  0.00000000E+00  0.00000000E+00
  0.00000000E+00  0.00000000E+00  0.00000000E+00
  0.00000000E+00  0.00000000E+00  0.00000000E+00
  0.00000000E+00  0.00000000E+00  0.00000000E+00
  0.00000000E+00  0.00000000E+00  0.00000000E+00
  0.00000000E+00  0.00000000E+00  0.00000000E+00
  0.00000000E+00  0.00000000E+00  0.00000000E+00
  0.00000000E+00  0.00000000E+00  0.00000000E+00
  0.00000000E+00  0.00000000E+00  0.00000000E+00
  0.00000000E+00  0.00000000E+00  0.00000000E+00
  0.00000000E+00  0.00000000E+00  0.00000000E+00
  0.00000000E+00  0.00000000E+00  0.00000000E+00
  0.00000000E+00  0.00000000E+00  0.00000000E+00
  0.00000000E+00  0.00000000E+00  0.00000000E+00
  0.00000000E+00  0.00000000E+00  0.00000000E+00
  0.00000000E+00  0.00000000E+00  0.00000000E+00
  0.00000000E+00  0.00000000E+00  0.00000000E+00
  0.00000000E+00  0.00000000E+00  0.00000000E+00
  0.00000000E+00  0.00000000E+00  0.00000000E+00
  0.00000000E+00  0.00000000E+00  0.00000000E+00
  0.00000000E+00  0.00000000E+00  0.00000000E+00
  0.00000000E+00  0.00000000E+00  0.00000000E+00
  0.00000000E+00  0.00000000E+00  0.00000000E+00
  0.00000000E+00  0.00000000E+00  0.00000000E+00
  0.00000000E+00  0.00000000E+00  0.00000000E+00
  0.00000000E+00  0.00000000E+00  0.00000000E+00
  0.00000000E+00  0.00000000E+00  0.00000000E+00
  0.00000000E+00  0.00000000E+00  0.00000000E+00
  0.00000000E+00  0.00000000E+00  0.00000000E+00
  0.00000000E+00  0.00000000E+00  0.00000000E+00
  0.00000000E+00  0.00000000E+00  0.00000000E+00
  0.00000000E+00  0.00000000E+00  0.00000000E+00
  0.00000000E+00  0.00000000E+00  0.00000000E+00
