POSCAR-clean                            
   1.0000000000000000     
    14.8480619358000006   -0.0000351718000000    0.0000000000000000
    -7.4240309679000003   12.7474195850999994    0.0000000000000000
     0.0000000000000000    0.0000000000000000   15.0000000000000000
   C    N    C    Cr   C    O 
    17     1    52     1     1     1
Direct
 -0.0026230766897793  0.9969769006683424  0.4957415059368319
  0.0533055570352304  0.1086709733088972  0.4914541734248880
  0.1660360436431723 -0.0005344226600658  0.4929160939635196
  0.2218660840960181  0.1112172866592405  0.4901144812080496
  0.3316985782906567 -0.0000882193577177  0.4911702920793700
  0.3876782754196404  0.1118452274765346  0.4912947887979265
  0.4979644220503311 -0.0013418942587039  0.4907525159000828
  0.5537328123879338  0.1104319574202403  0.4915824966911350
  0.6643922151156034  0.9970322640137661  0.4928989200314852
  0.7199762476251463  0.1083123840651806  0.4925333378498463
  0.8305848415511690  0.9965691407496751  0.4965157040135075
  0.8861937127644515  0.1079226257751834  0.4929916635623600
 -0.0024910498608188  0.1637602640669414  0.4904280989372852
  0.0532067887977910  0.2748862678100978  0.4879121158208485
  0.1644125029520211  0.1648892237595323  0.4884620607471851
  0.2207744518075613  0.2757015145199683  0.4846201068790182
  0.3329843789745741  0.1679038698972604  0.4907386345958605
  0.3883108504736227  0.2784244415544024  0.4912502058985606
  0.4989249200407836  0.1669889835547928  0.4918116731411892
  0.5535157605056357  0.2782780864459531  0.4946873227243561
  0.6646540455778660  0.1645544711946411  0.4923804974627385
  0.7199770143447536  0.2755059254024407  0.4938545946137068
  0.8309145803792811  0.1636542405933119  0.4921393777511930
  0.8866577314137498  0.2751825135874079  0.4910586277959170
  0.9976405202288995  0.3306421095370299  0.4892570869422360
  0.0531134107922810  0.4420395605484790  0.4901392324112412
  0.1643980641621321  0.3306298759193951  0.4856315889934618
  0.2188337666914288  0.4419108132415185  0.4869537011382384
  0.3330671552261065  0.3330048840112497  0.4841938994726919
  0.3863084964517502  0.4420276376473964  0.4818747063547568
  0.4992756815395146  0.3369218349723414  0.4978929786981480
  0.5554829893743410  0.4473635877494970  0.5091070808507326
  0.6646654608616061  0.3313909007074886  0.4962001522851526
  0.7215967491122511  0.4423938421707545  0.4998780567783427
  0.8313180312309344  0.3308096198410065  0.4930185572503589
  0.8874962439135295  0.4421560552989620  0.4946717785108062
 -0.0018652120657328  0.4977690002717682  0.4933420783311595
  0.0539578478437011  0.6093506996193992  0.4950415761631698
  0.1639304081101947  0.4978164923425159  0.4896342392552893
  0.2196063936989584  0.6091009679937627  0.4909108588424164
  0.3291148592803567  0.4962975129118898  0.4838377573086293
  0.3853916712202615  0.6090676112154403  0.4864170408585053
  0.6667834576178259  0.4971704879379158  0.5061884105233506
  0.7228244789164308  0.6084491235633195  0.5092845211663097
  0.8326497520674351  0.4980093166983901  0.4986951720906356
  0.8882844017177658  0.6090219536187150  0.5010841322106343
 -0.0009292705810574  0.6650100648466639  0.4983832781561182
  0.0544634558018186  0.7764398597313532  0.4981577771045175
  0.1646335504129164  0.6650667953557433  0.4927964896664280
  0.2204264851666157  0.7764765575161622  0.4927834018567478
  0.3302894102656134  0.6646854428910155  0.4899661813073084
  0.3866412534002467  0.7762840568858539  0.4895118224982831
  0.4963794403617237  0.6642418152052619  0.4906656076086076
  0.5528709783966330  0.7742601524611261  0.4911388397807031
  0.6618468011523239  0.6582649375094898  0.5148536724967168
  0.7168945110022646  0.7704205274232245  0.5059176436398866
  0.8328291820146645  0.6643893237559280  0.5051331965754963
  0.8877452811457309  0.7758628452889024  0.5038159934157241
 -0.0013464624251191  0.8318838120404051  0.5000175901637830
  0.0543372505179714  0.9431274713339447  0.4963608061796980
  0.1651929848308978  0.8321329543728868  0.4947256646230668
  0.2210770556345728  0.9439069598362125  0.4929084353654541
  0.3316011055375305  0.8322893098198232  0.4907090645952522
  0.3871771495652697  0.9438220586755097  0.4905224869102252
  0.4976073021387011  0.8310196240085083  0.4890627167745947
  0.5531461385720908  0.9423926181509920  0.4908509760800856
  0.6637238955533462  0.8286769010603532  0.4986033773615829
  0.7194012305372541  0.9405119812137807  0.4962176007928552
  0.8296940121966750  0.8286584780344005  0.5030029436853075
  0.8858421825103908  0.9404846677471734  0.4984425996178488
  0.5091966252480862  0.5526479619277308  0.5397606531501513
  0.5671096803100223  0.5919555868228903  0.6560051934053041
  0.6035987143932133  0.6071479218066809  0.7271220909184692

  0.00000000E+00  0.00000000E+00  0.00000000E+00
  0.00000000E+00  0.00000000E+00  0.00000000E+00
  0.00000000E+00  0.00000000E+00  0.00000000E+00
  0.00000000E+00  0.00000000E+00  0.00000000E+00
  0.00000000E+00  0.00000000E+00  0.00000000E+00
  0.00000000E+00  0.00000000E+00  0.00000000E+00
  0.00000000E+00  0.00000000E+00  0.00000000E+00
  0.00000000E+00  0.00000000E+00  0.00000000E+00
  0.00000000E+00  0.00000000E+00  0.00000000E+00
  0.00000000E+00  0.00000000E+00  0.00000000E+00
  0.00000000E+00  0.00000000E+00  0.00000000E+00
  0.00000000E+00  0.00000000E+00  0.00000000E+00
  0.00000000E+00  0.00000000E+00  0.00000000E+00
  0.00000000E+00  0.00000000E+00  0.00000000E+00
  0.00000000E+00  0.00000000E+00  0.00000000E+00
  0.00000000E+00  0.00000000E+00  0.00000000E+00
  0.00000000E+00  0.00000000E+00  0.00000000E+00
  0.00000000E+00  0.00000000E+00  0.00000000E+00
  0.00000000E+00  0.00000000E+00  0.00000000E+00
  0.00000000E+00  0.00000000E+00  0.00000000E+00
  0.00000000E+00  0.00000000E+00  0.00000000E+00
  0.00000000E+00  0.00000000E+00  0.00000000E+00
  0.00000000E+00  0.00000000E+00  0.00000000E+00
  0.00000000E+00  0.00000000E+00  0.00000000E+00
  0.00000000E+00  0.00000000E+00  0.00000000E+00
  0.00000000E+00  0.00000000E+00  0.00000000E+00
  0.00000000E+00  0.00000000E+00  0.00000000E+00
  0.00000000E+00  0.00000000E+00  0.00000000E+00
  0.00000000E+00  0.00000000E+00  0.00000000E+00
  0.00000000E+00  0.00000000E+00  0.00000000E+00
  0.00000000E+00  0.00000000E+00  0.00000000E+00
  0.00000000E+00  0.00000000E+00  0.00000000E+00
  0.00000000E+00  0.00000000E+00  0.00000000E+00
  0.00000000E+00  0.00000000E+00  0.00000000E+00
  0.00000000E+00  0.00000000E+00  0.00000000E+00
  0.00000000E+00  0.00000000E+00  0.00000000E+00
  0.00000000E+00  0.00000000E+00  0.00000000E+00
  0.00000000E+00  0.00000000E+00  0.00000000E+00
  0.00000000E+00  0.00000000E+00  0.00000000E+00
  0.00000000E+00  0.00000000E+00  0.00000000E+00
  0.00000000E+00  0.00000000E+00  0.00000000E+00
  0.00000000E+00  0.00000000E+00  0.00000000E+00
  0.00000000E+00  0.00000000E+00  0.00000000E+00
  0.00000000E+00  0.00000000E+00  0.00000000E+00
  0.00000000E+00  0.00000000E+00  0.00000000E+00
  0.00000000E+00  0.00000000E+00  0.00000000E+00
  0.00000000E+00  0.00000000E+00  0.00000000E+00
  0.00000000E+00  0.00000000E+00  0.00000000E+00
  0.00000000E+00  0.00000000E+00  0.00000000E+00
  0.00000000E+00  0.00000000E+00  0.00000000E+00
  0.00000000E+00  0.00000000E+00  0.00000000E+00
  0.00000000E+00  0.00000000E+00  0.00000000E+00
  0.00000000E+00  0.00000000E+00  0.00000000E+00
  0.00000000E+00  0.00000000E+00  0.00000000E+00
  0.00000000E+00  0.00000000E+00  0.00000000E+00
  0.00000000E+00  0.00000000E+00  0.00000000E+00
  0.00000000E+00  0.00000000E+00  0.00000000E+00
  0.00000000E+00  0.00000000E+00  0.00000000E+00
  0.00000000E+00  0.00000000E+00  0.00000000E+00
  0.00000000E+00  0.00000000E+00  0.00000000E+00
  0.00000000E+00  0.00000000E+00  0.00000000E+00
  0.00000000E+00  0.00000000E+00  0.00000000E+00
  0.00000000E+00  0.00000000E+00  0.00000000E+00
  0.00000000E+00  0.00000000E+00  0.00000000E+00
  0.00000000E+00  0.00000000E+00  0.00000000E+00
  0.00000000E+00  0.00000000E+00  0.00000000E+00
  0.00000000E+00  0.00000000E+00  0.00000000E+00
  0.00000000E+00  0.00000000E+00  0.00000000E+00
  0.00000000E+00  0.00000000E+00  0.00000000E+00
  0.00000000E+00  0.00000000E+00  0.00000000E+00
  0.00000000E+00  0.00000000E+00  0.00000000E+00
  0.00000000E+00  0.00000000E+00  0.00000000E+00
  0.00000000E+00  0.00000000E+00  0.00000000E+00
