POSCAR-clean
1.0
14.900557007232 -0.0604177924913694 0.0
-7.450278503565925 12.787504480748336 0.0
0.0 0.0 15.0
C N C Cr
52 1 17 1
Cartesian
7.4469388757 12.7229473287 0.0155435624
0.0006684122 1.4202882687 0.0175200821
2.4813534818 0.0206315004 0.0073722057
2.4837950411 1.4454947139 0.0203263472
4.9590365534 0.0131634099 0.0106405764
4.9675845632 1.4332889293 0.020667476
7.4458951852 -0.0285682442 0.005208451
7.4552245016 1.3877516095 0.0
2.4852823502 12.7102742727 0.0262059511
9.9439057571 1.3455879466 0.011339014
4.9615707173 12.6938964918 0.026057696
12.4184196376 1.3325382794 0.0109243093
13.6574526674 2.0542454349 0.0136673652
-1.2431377843 3.5390215781 0.0251601612
1.2421142207 2.1459079816 0.0290201035
1.2448224442 3.5737721732 0.0487112568
3.7285939549 2.1671660168 0.0422201225
3.7387573961 3.5859802443 0.105579401
6.2189520753 2.1139188568 0.0121355456
6.2319761652 3.5329484938 0.0517893
8.7093307036 2.0676267983 0.0044331577
8.7198986031 3.4859424065 0.0099021326
11.1847174493 2.0512597927 0.0107908684
11.1878799255 3.4730810448 0.0127699047
12.4223160433 4.1869602536 0.0221918828
-2.4884072453 5.6724689829 0.0302933943
-0.0067379716 4.2619122025 0.0481371863
-0.0359675594 5.6823088049 0.0712450941
2.4859149703 4.3148119685 0.0799087835
2.4307596048 5.7337377367 0.1061889625
5.0052511621 4.2762147899 0.1630791075
5.0677990183 5.6755442137 0.3361599309
7.4895675352 4.2041217089 0.035223017
7.5163335216 5.6189810403 0.0508281937
9.9569681747 4.1900458793 0.0109183467
9.9611184555 5.6159553638 0.0120224093
-3.7152068642 6.3917197237 0.0201511975
-3.7238095191 7.814010601 0.020739744
-1.268281536 6.388131079 0.0505236859
-1.28016474 7.8103166304 0.0372774345
1.1914488393 6.3977415323 0.1032590681
1.1638502135 7.8449305451 0.1373187132
6.3026795761 6.3222932372 0.1604784563
6.2900005069 7.7613386218 0.1106079232
8.7414393648 6.3327855027 0.020958892
8.7327604955 7.7565361494 0.0327835963
-4.9497267973 8.5316868741 0.0225530935
-4.9659710164 9.9572169484 0.0169532613
-2.4997107042 8.5285382933 0.0208618868
-2.5009755425 9.9526958859 0.0166634075
-0.0592110987 8.5315529546 0.0599210308
-0.0395910167 9.9450334016 0.0464509484
2.3516053958 8.4970598483 0.2542706159
2.4294823454 9.8579526989 0.1398046605
5.0435428899 8.4079586283 0.1344870464
4.9666483067 9.8194867709 0.0866569968
7.5045651144 8.4731939266 0.0534130834
7.4641337979 9.8895937174 0.03679282
-6.2015487768 10.6680516471 0.0168593025
-6.2069375043 12.0890484972 0.0097049798
-3.7334971832 10.6709556027 0.0126198424
-3.7323364403 12.0929206269 0.0098349801
-1.2684234614 10.6613638406 0.0202606694
-1.2567544268 12.0792109057 0.0103405925
1.2141973156 10.6161472786 0.0566449466
1.2336368701 12.034082095 0.0210606336
3.7070885881 10.5379110398 0.1015826748
3.716161906 11.9663985033 0.0483246334
6.2072756881 10.5700336438 0.0484713146
6.2051211517 11.9965962766 0.0298592231
3.72290795 7.0699263853 0.7808695432