POSCAR-c3n4                             
  0.85999999999999999     
    13.8434242346000005   -0.1907404740000000    0.0000000000000000
    -6.9217121174000003   11.6951909938999989    0.0000000000000000
     0.0000000000000000    0.0000000000000000   15.0000000000000000
   C    N    Ge   C    O 
    24    32     1     1     1
Direct
  0.0912933623999237  0.1896341305097948  0.3425606503876253
  0.2864498467304557  0.4154202328380450  0.3495844564146751
  0.0688925669617717  0.3719041384635844  0.3296608287089100
  0.4778404646000922  0.0017076321907581  0.4941991449249770
  0.4627487248292184  0.4121461944856790  0.3939441321144130
  0.1215699208796934  0.0472611071799420  0.4327169939405877
  0.0670262082454585  0.6903468185347705  0.4990591073384749
  0.2846283388293926  0.8458688214464516  0.5612879921239511
  0.1326624643267849  0.9104954407206023  0.5458773573280311
  0.4183174813584074  0.5715277852802387  0.4710341304095422
  0.4536276167231250  0.9081704613936168  0.6652765458378553
  0.0468050572191174  0.5034930641948279  0.4375936374714158
  0.6578320583829722  0.2048000538047461  0.4711505470730799
  0.7490090354863312  0.3961078315875710  0.3381055151675127
  0.6177314964565426  0.3853650536133557  0.4647684910667635
  0.9150964850067140  0.0379875281709232  0.4378137843443639
  0.9215314765635512  0.4130701120597635  0.2823913713227171
  0.6651695882608593  0.0989694601721496  0.6133569057913135
  0.5596619572853427  0.7003018970193935  0.6126946893612626
  0.7822320454751903  0.9184723574916021  0.5707289911971429
  0.6364820683919845  0.9213335409727961  0.6863234029445380
  0.9099765047007580  0.5861648657673868  0.3790480042084710
  0.9830909183871839  0.9570759634460302  0.5844195299525055
  0.5873766384686263  0.5329903180053179  0.5502177696923951
  0.1544737670933500  0.3242205954453965  0.3139469425681654
  0.1644163830788088  0.1357596378358465  0.3569237161529273
  0.3550782204789016  0.9028588645417344  0.4754210540361541
  0.5280312307581028  0.3505577742332449  0.3901191327980840
  0.3670595784383508  0.3751964313871738  0.3245088855794407
  0.5504569391368790  0.1014384690812165  0.4283825351609281
  0.1806168308133635  0.9829128780843277  0.4611561336934500
  0.0064554795592358  0.0151142068590815  0.4865932727455089
  0.1505050478329935  0.8014893407873913  0.5557997776280459
  0.0928384968537657  0.5923242903385244  0.5129514558220478
  0.3142863847234949  0.5227752025747208  0.4080465363104793
  0.5119489955932437  0.8631896362856750  0.7289083893224486
  0.3243004998309686  0.8420409799815189  0.6564210068765561
  0.4559314980124043  0.6738867042081154  0.5377639152582248
  0.0707035246035019  0.4053479715743435  0.4293059396305026
  0.9744367740073869  0.5156583061787430  0.3578693609835142
  0.6988223403715921  0.3340934594330207  0.4297405312384228
  0.7235389390686606  0.2112640208599217  0.5565166559375001
  0.7901949274831281  0.9682112545414086  0.4760781850434768
  0.0044369532456017  0.3758489067697894  0.2484930815526880
  0.7937552181508352  0.3459047875776449  0.2669157562051510
  0.9595180945779020  0.1282497115766574  0.3624812731405598
  0.7192712026106065  0.0573528034461575  0.6805053214416077
  0.5285799839571936  0.0093583516075810  0.5943823760235176
  0.6559753639122334  0.8462684903337987  0.6220738393484098
  0.6230243687090038  0.6284957826139674  0.6160940954802854
  0.7889801176952886  0.5307385741695256  0.3420709326373554
  0.0596602284000340  0.9153569036043905  0.6212450755164838
  0.8727379088490608  0.9242926838076286  0.6336091892102260
  0.9746014116117223  0.6926417112594052  0.4415855699779030
  0.6467880495383653  0.4597708668428027  0.5470732134809353
  0.4880524655217329  0.5042322167357085  0.4721331134152891
  0.3920930310542232  0.6445292221299752  0.6974978760796731
  0.3759492769640715  0.5715641333027079  0.9396150944522645
  0.3155494230874822  0.5317625322867912  0.0139567860025878

  0.00000000E+00  0.00000000E+00  0.00000000E+00
  0.00000000E+00  0.00000000E+00  0.00000000E+00
  0.00000000E+00  0.00000000E+00  0.00000000E+00
  0.00000000E+00  0.00000000E+00  0.00000000E+00
  0.00000000E+00  0.00000000E+00  0.00000000E+00
  0.00000000E+00  0.00000000E+00  0.00000000E+00
  0.00000000E+00  0.00000000E+00  0.00000000E+00
  0.00000000E+00  0.00000000E+00  0.00000000E+00
  0.00000000E+00  0.00000000E+00  0.00000000E+00
  0.00000000E+00  0.00000000E+00  0.00000000E+00
  0.00000000E+00  0.00000000E+00  0.00000000E+00
  0.00000000E+00  0.00000000E+00  0.00000000E+00
  0.00000000E+00  0.00000000E+00  0.00000000E+00
  0.00000000E+00  0.00000000E+00  0.00000000E+00
  0.00000000E+00  0.00000000E+00  0.00000000E+00
  0.00000000E+00  0.00000000E+00  0.00000000E+00
  0.00000000E+00  0.00000000E+00  0.00000000E+00
  0.00000000E+00  0.00000000E+00  0.00000000E+00
  0.00000000E+00  0.00000000E+00  0.00000000E+00
  0.00000000E+00  0.00000000E+00  0.00000000E+00
  0.00000000E+00  0.00000000E+00  0.00000000E+00
  0.00000000E+00  0.00000000E+00  0.00000000E+00
  0.00000000E+00  0.00000000E+00  0.00000000E+00
  0.00000000E+00  0.00000000E+00  0.00000000E+00
  0.00000000E+00  0.00000000E+00  0.00000000E+00
  0.00000000E+00  0.00000000E+00  0.00000000E+00
  0.00000000E+00  0.00000000E+00  0.00000000E+00
  0.00000000E+00  0.00000000E+00  0.00000000E+00
  0.00000000E+00  0.00000000E+00  0.00000000E+00
  0.00000000E+00  0.00000000E+00  0.00000000E+00
  0.00000000E+00  0.00000000E+00  0.00000000E+00
  0.00000000E+00  0.00000000E+00  0.00000000E+00
  0.00000000E+00  0.00000000E+00  0.00000000E+00
  0.00000000E+00  0.00000000E+00  0.00000000E+00
  0.00000000E+00  0.00000000E+00  0.00000000E+00
  0.00000000E+00  0.00000000E+00  0.00000000E+00
  0.00000000E+00  0.00000000E+00  0.00000000E+00
  0.00000000E+00  0.00000000E+00  0.00000000E+00
  0.00000000E+00  0.00000000E+00  0.00000000E+00
  0.00000000E+00  0.00000000E+00  0.00000000E+00
  0.00000000E+00  0.00000000E+00  0.00000000E+00
  0.00000000E+00  0.00000000E+00  0.00000000E+00
  0.00000000E+00  0.00000000E+00  0.00000000E+00
  0.00000000E+00  0.00000000E+00  0.00000000E+00
  0.00000000E+00  0.00000000E+00  0.00000000E+00
  0.00000000E+00  0.00000000E+00  0.00000000E+00
  0.00000000E+00  0.00000000E+00  0.00000000E+00
  0.00000000E+00  0.00000000E+00  0.00000000E+00
  0.00000000E+00  0.00000000E+00  0.00000000E+00
  0.00000000E+00  0.00000000E+00  0.00000000E+00
  0.00000000E+00  0.00000000E+00  0.00000000E+00
  0.00000000E+00  0.00000000E+00  0.00000000E+00
  0.00000000E+00  0.00000000E+00  0.00000000E+00
  0.00000000E+00  0.00000000E+00  0.00000000E+00
  0.00000000E+00  0.00000000E+00  0.00000000E+00
  0.00000000E+00  0.00000000E+00  0.00000000E+00
  0.00000000E+00  0.00000000E+00  0.00000000E+00
  0.00000000E+00  0.00000000E+00  0.00000000E+00
  0.00000000E+00  0.00000000E+00  0.00000000E+00
