POSCAR-clean                            
   1.00000000000000     
    14.8578513510237276   -0.0013713678020068    0.0000000000000000
    -7.4289256754619331   12.7568500170382393    0.0000000000000000
     0.0000000000000000    0.0000000000000000   15.0000000000000000
   C    N    C    Cr
    59     1    10     1
Direct
  0.0005752503897670  0.9993513215354242  0.4976731525671642
  0.0561169925839336  0.1107099934721027  0.4977255454909518
  0.1668919247243736  0.0014877252264902  0.4975983140202094
  0.2225398381128488  0.1126385604333147  0.4982844448840301
  0.3336929535789923  0.0020770106733826  0.4977247051054119
  0.3898465322999875  0.1133051610959918  0.4983824388050408
  0.4998689344987086  0.9998130601680602  0.4977332532238813
  0.5557346623547287  0.1113369419207524  0.4976606771375617
  0.6659409997799602  0.9977608604661217  0.4982578130913223
  0.7216364307979732  0.1091615317861665  0.4975379777559849
  0.8329860459165506  0.9978820142143646  0.4983561060439645
  0.8880816150492225  0.1091102969471411  0.4977326901617597
  0.9989909712398556  0.1648436188791942  0.4978115127104678
  0.0544256635049866  0.2764114019614262  0.4984854845380423
  0.1675048158193492  0.1683156035567647  0.4983798408931079
  0.2230546591250018  0.2795815527803931  0.5000561114561791
  0.3347216417921811  0.1695995698004757  0.4994245687743853
  0.3904905265832355  0.2810539885588397  0.5025266501743539
  0.5008182156667812  0.1680861078768040  0.4984260615067057
  0.5567875254548215  0.2796950290577889  0.5000376861184687
  0.6666242206281304  0.1654872818784429  0.4975215389350283
  0.7225746595504472  0.2767570055174474  0.4980276464947589
  0.8326278064779682  0.1648610234799636  0.4976168607154352
  0.8883282640915682  0.2762752414875767  0.4977589697867332
  0.9991088994497046  0.3320601104003794  0.4983149479498702
  0.0545359256323901  0.4438847051063289  0.4987761970820629
  0.1653060275843458  0.3327929116467530  0.5000248975349721
  0.2191953740010684  0.4438310316645867  0.5017350574890601
  0.3353893384464619  0.3377948438475339  0.5033840209178632
  0.3876129697701406  0.4484642668831944  0.5094407240434422
  0.5025927392777788  0.3377531012057366  0.5034748059570067
  0.5612957309357921  0.4486170933477238  0.5096438026385469
  0.6676795467482568  0.3329370598856005  0.4996694720685395
  0.7249006839825474  0.4440108836224956  0.5012863004513211
  0.8333272827213062  0.3322391826086770  0.4979106549430865
  0.8895297591970062  0.4439654046948053  0.4982462135191629
  0.0000232281725981  0.5000589806678297  0.4982601860950116
  0.0557476686586025  0.6117022231508109  0.4982651023364292
  0.1645273661529223  0.4998121425292779  0.5003536171160265
  0.2202723320407178  0.6113610101174487  0.5003300456486935
  0.3290080314791409  0.4992274980551919  0.5051636329007271
  0.3852661266781429  0.6118174228640570  0.5051686021122985
  0.6706305534143793  0.4994634939394713  0.5052112368476819
  0.7272168490872981  0.6123020033535657  0.5051765569056865
  0.8354452686391960  0.4999454557661750  0.4995859659276266
  0.8912992423628929  0.6116090500067022  0.4995604663599144
  0.0011276770113889  0.6678932429454558  0.4982410129365520
  0.0569079185473604  0.7799562403068514  0.4978980266625050
  0.1661209004072515  0.6672944769774805  0.4987800644996643
  0.2223933213342632  0.7790598174444178  0.4983129222197926
  0.3309187651329188  0.6672617948090186  0.5016945734571738
  0.3881683696869535  0.7783475611951458  0.5000176748108166
  0.4946642740014119  0.6625501186136690  0.5094754992877130
  0.5532453324802435  0.7733038109388081  0.5033746568815606
  0.6684876456719198  0.6625714336811679  0.5098356014689163
  0.7207490815829132  0.7734405570397181  0.5034746057361742
  0.8371982160297347  0.6678176314024969  0.5011863197379801
  0.8910387294145879  0.7792341479445899  0.4996732611689056
  0.0019001467095866  0.8354698988591148  0.4980932439507995
  0.0566796452652942  0.9456417829753619  0.4975749340317434
  0.1676300879995440  0.8347810071759187  0.4977413093524162
  0.2223152189728882  0.9460029400824037  0.4976151178002683
  0.3332809204673018  0.8345651816910203  0.4984958663403249
  0.3888424400593455  0.9456901499110385  0.4978203275870842
  0.4990105821246582  0.8314908597936146  0.5000654507753463
  0.5549297117808306  0.9430201782348918  0.4983881556232866
  0.6651616408745479  0.8298367963129882  0.5025057275101000
  0.7210351381925759  0.9409643856970701  0.4993988598049073
  0.8325420970485184  0.8313146662616464  0.5000255620572414
  0.8892211169907817  0.9428894905921928  0.4983878117325102
  0.5278790888760511  0.5555699531047037  0.5548608363435225
 
  0.00000000E+00  0.00000000E+00  0.00000000E+00
  0.00000000E+00  0.00000000E+00  0.00000000E+00
  0.00000000E+00  0.00000000E+00  0.00000000E+00
  0.00000000E+00  0.00000000E+00  0.00000000E+00
  0.00000000E+00  0.00000000E+00  0.00000000E+00
  0.00000000E+00  0.00000000E+00  0.00000000E+00
  0.00000000E+00  0.00000000E+00  0.00000000E+00
  0.00000000E+00  0.00000000E+00  0.00000000E+00
  0.00000000E+00  0.00000000E+00  0.00000000E+00
  0.00000000E+00  0.00000000E+00  0.00000000E+00
  0.00000000E+00  0.00000000E+00  0.00000000E+00
  0.00000000E+00  0.00000000E+00  0.00000000E+00
  0.00000000E+00  0.00000000E+00  0.00000000E+00
  0.00000000E+00  0.00000000E+00  0.00000000E+00
  0.00000000E+00  0.00000000E+00  0.00000000E+00
  0.00000000E+00  0.00000000E+00  0.00000000E+00
  0.00000000E+00  0.00000000E+00  0.00000000E+00
  0.00000000E+00  0.00000000E+00  0.00000000E+00
  0.00000000E+00  0.00000000E+00  0.00000000E+00
  0.00000000E+00  0.00000000E+00  0.00000000E+00
  0.00000000E+00  0.00000000E+00  0.00000000E+00
  0.00000000E+00  0.00000000E+00  0.00000000E+00
  0.00000000E+00  0.00000000E+00  0.00000000E+00
  0.00000000E+00  0.00000000E+00  0.00000000E+00
  0.00000000E+00  0.00000000E+00  0.00000000E+00
  0.00000000E+00  0.00000000E+00  0.00000000E+00
  0.00000000E+00  0.00000000E+00  0.00000000E+00
  0.00000000E+00  0.00000000E+00  0.00000000E+00
  0.00000000E+00  0.00000000E+00  0.00000000E+00
  0.00000000E+00  0.00000000E+00  0.00000000E+00
  0.00000000E+00  0.00000000E+00  0.00000000E+00
  0.00000000E+00  0.00000000E+00  0.00000000E+00
  0.00000000E+00  0.00000000E+00  0.00000000E+00
  0.00000000E+00  0.00000000E+00  0.00000000E+00
  0.00000000E+00  0.00000000E+00  0.00000000E+00
  0.00000000E+00  0.00000000E+00  0.00000000E+00
  0.00000000E+00  0.00000000E+00  0.00000000E+00
  0.00000000E+00  0.00000000E+00  0.00000000E+00
  0.00000000E+00  0.00000000E+00  0.00000000E+00
  0.00000000E+00  0.00000000E+00  0.00000000E+00
  0.00000000E+00  0.00000000E+00  0.00000000E+00
  0.00000000E+00  0.00000000E+00  0.00000000E+00
  0.00000000E+00  0.00000000E+00  0.00000000E+00
  0.00000000E+00  0.00000000E+00  0.00000000E+00
  0.00000000E+00  0.00000000E+00  0.00000000E+00
  0.00000000E+00  0.00000000E+00  0.00000000E+00
  0.00000000E+00  0.00000000E+00  0.00000000E+00
  0.00000000E+00  0.00000000E+00  0.00000000E+00
  0.00000000E+00  0.00000000E+00  0.00000000E+00
  0.00000000E+00  0.00000000E+00  0.00000000E+00
  0.00000000E+00  0.00000000E+00  0.00000000E+00
  0.00000000E+00  0.00000000E+00  0.00000000E+00
  0.00000000E+00  0.00000000E+00  0.00000000E+00
  0.00000000E+00  0.00000000E+00  0.00000000E+00
  0.00000000E+00  0.00000000E+00  0.00000000E+00
  0.00000000E+00  0.00000000E+00  0.00000000E+00
  0.00000000E+00  0.00000000E+00  0.00000000E+00
  0.00000000E+00  0.00000000E+00  0.00000000E+00
  0.00000000E+00  0.00000000E+00  0.00000000E+00
  0.00000000E+00  0.00000000E+00  0.00000000E+00
  0.00000000E+00  0.00000000E+00  0.00000000E+00
  0.00000000E+00  0.00000000E+00  0.00000000E+00
  0.00000000E+00  0.00000000E+00  0.00000000E+00
  0.00000000E+00  0.00000000E+00  0.00000000E+00
  0.00000000E+00  0.00000000E+00  0.00000000E+00
  0.00000000E+00  0.00000000E+00  0.00000000E+00
  0.00000000E+00  0.00000000E+00  0.00000000E+00
  0.00000000E+00  0.00000000E+00  0.00000000E+00
  0.00000000E+00  0.00000000E+00  0.00000000E+00
  0.00000000E+00  0.00000000E+00  0.00000000E+00
  0.00000000E+00  0.00000000E+00  0.00000000E+00
