POSCAR-clean
1.0
14.860536817427471 1.1824027607e-05 0.0
-7.430268408663794 12.756349394965877 0.0
0.0 0.0 15.0
C N C Cr
36 1 33 1
Cartesian
-7.4284194506 12.7538895601 0.0016625939
0.0006507395 1.4234566923 0.002775061
2.4818816266 0.0238776177 0.0003737468
2.4803612883 1.4460927066 0.0110814483
4.9520811984 0.0237803421 0.0029861285
4.953640151 1.4459630164 0.0126911961
0.0018061464 12.7537656685 0.0029000817
7.4332574276 1.4233265327 0.0016758193
2.4796840073 12.7302483539 0.0113251134
9.9108593634 1.3953447167 0.0003390018
4.9543356465 12.7303823309 0.0128602816
12.3836360958 1.3954514172 0.0029101723
13.6155170646 2.1169047198 0.0039618386
-1.2509942319 3.5390071348 0.0138821285
1.2382475258 2.1464951259 0.0132656082
1.2362501853 3.5713066819 0.0396503227
3.7170404555 2.1692144657 0.0271415176
3.717109094 3.5926640552 0.0734102971
6.1957232179 2.1463929233 0.0135591117
6.1977148624 3.5713283788 0.0388758459
8.6789585398 2.1167800916 0.0
8.6848606242 3.5388754853 0.007629528
11.1472129502 2.1058741011 0.0008037987
11.1471783004 3.5248620216 0.0026847638
12.3691339427 4.2479021227 0.0111940845
-2.5000223548 5.6694630547 0.019040527
-0.0180293025 4.248450867 0.037781673
-0.0478837567 5.662926406 0.0653041395
2.4760325803 4.3128986307 0.0883163611
2.4328462647 5.7281963698 0.176621052
4.9581273905 4.3133362582 0.090187865
5.0014870836 5.7288324519 0.1804841774
7.4519163338 4.248351684 0.0325486897
7.4816708854 5.66290023 0.0582427176
9.925224833 4.2478427207 0.0060174061
9.9337872872 5.6694641739 0.0128356189
11.1471277156 6.3743877627 0.0118657689
-3.7134037071 7.7857390507 0.0099221644
-1.2783880244 6.3793702161 0.0424979739
-1.2638407565 7.7996914961 0.0422679262
1.1771027911 6.3708998407 0.1187748454
1.1830085131 7.8015079285 0.1185616862
6.2571826183 6.3709123832 0.1173316808
6.2512582638 7.8014689161 0.1171197536
8.7121413119 6.3794086171 0.0327637021
8.6976000617 7.7996481118 0.0323461498
-4.935332707 8.4999733881 0.0102394926
-4.9390183915 9.9287147741 0.0053261082
-2.491427778 8.4999803197 0.0169679846
-2.4876858294 9.9286804449 0.0107393264
-0.0400204697 8.5098954077 0.0658330103
-0.0167635017 9.9279785799 0.0381491447
2.4364300889 8.444855272 0.1742680615
2.4763210103 9.8613384999 0.0880267077
4.997887386 8.4441927892 0.1780927395
4.9578314129 9.8608853821 0.0898663037
7.4738249232 8.5099061189 0.0586765414
7.4506531117 9.928072551 0.0328764573
-6.1763812992 10.6398909344 0.0078097884
-6.1825450785 12.0606481077 0.0001767662
-3.7133503516 10.6450721226 0.0026368788
-3.7133330529 12.069436778 0.0010394235
-1.2502667807 10.6397976466 0.0140998715
-1.2440515285 12.0605455093 0.0042051604
1.2362350544 10.6042069077 0.0397911121
1.237896387 12.0298223202 0.013475977
3.7171183395 10.5829017045 0.073808523
3.7170410398 12.0065954105 0.0276837624
6.1977471788 10.6041618939 0.038944393
6.1960690196 12.0299220697 0.0136403222
3.7138562329 7.0838702949 0.8584176019