POSCAR-c3n4                             
  0.97999999999999998     
    13.8434242346000005   -0.1907404740000000    0.0000000000000000
    -6.9217121174000003   11.6951909939000007    0.0000000000000000
     0.0000000000000000    0.0000000000000000   15.0000000000000000
   C    N    Ge   C    O 
    24    32     1     1     1
Direct
  0.1045849473610416  0.2123531508081243  0.4312288371498527
  0.2889220034640829  0.4018803150064976  0.4431408158287695
  0.1025315614434568  0.3915984042783367  0.4358867439553334
  0.4474180459023716  0.0647830789613134  0.5245600951909847
  0.4581660711394368  0.4092291084246927  0.4223058385372497
  0.1126276782639629  0.0519191212990577  0.4613468575901720
  0.0900757639031075  0.7084559468046618  0.5046482331260547
  0.2828377853929535  0.8869593333057152  0.5231534748282248
  0.1111585586505462  0.8970937081526152  0.5205255330735515
  0.4477228994470758  0.5480290387975795  0.5223787553567035
  0.4462134111443038  0.8831377658472624  0.5088365847749678
  0.0778294575658447  0.5349084845898473  0.4980575502078788
  0.6184212564863766  0.2237668754519728  0.4859419307681216
  0.7772734193807133  0.3884812092223207  0.4011646335306381
  0.6132036644410985  0.3959784938353537  0.4488238963319162
  0.9377297348326050  0.0519130902774992  0.4758181471213044
  0.9391650292344319  0.3863966138722524  0.3972019157505780
  0.6260837349307297  0.0673112397580391  0.5330249608696621
  0.6145950584260167  0.7086740535120565  0.5638812760152792
  0.7921555746218832  0.9003060903549430  0.5512531530003761
  0.6105097855124538  0.8914412088413898  0.5490241971477844
  0.9334537677162215  0.5631633287566552  0.4306920063867612
  0.9612680835467255  0.9116889837425929  0.5637200983491941
  0.6234184532027701  0.5519558878569599  0.5166087863903734
  0.1670229136879550  0.3361062142357505  0.4312707658029087
  0.1644044896376003  0.1585266074984891  0.4256820352208455
  0.3352862892728652  0.0010331679042549  0.5445244024748781
  0.5189630435127164  0.3613177367299056  0.3989973403929044
  0.3495145788892277  0.3676269580663470  0.3968372384359454
  0.5064249792816231  0.1790395029128597  0.5091181685426971
  0.1571054347390712  0.9836558495660228  0.4602807374495001
  0.0052755630841350  0.0066936300415098  0.5039839979867223
  0.1625450654923198  0.8279494404167748  0.5233143268808977
  0.1237451077372924  0.6373490278839387  0.5400886140375701
  0.3326712061852146  0.4917188522864380  0.5066407578480170
  0.5045009381254899  0.8278823812685490  0.5122700554175844
  0.3316434324632146  0.8246403376844894  0.4996250526591406
  0.4972862365013128  0.6441202053930531  0.5728197033304714
  0.1345251646990565  0.4767603506275611  0.5011862646585338
  0.9816413293909370  0.4923915775106862  0.4476667681084898
  0.6676351160124269  0.3288247951731098  0.4373635460170869
  0.6846387213864455  0.1806243134178258  0.5116604563017910
  0.8240274616044286  0.9822039046971498  0.4872339852272739
  0.0133977907844188  0.3512761691558575  0.3807880691702293
  0.8287086325630943  0.3289612913766712  0.3773587685580703
  0.9893614625532346  0.1586975012517684  0.4409659974183883
  0.6705993877145106  0.0065715270127930  0.5674256053297212
  0.5060355504155352  0.0035953163182663  0.5163531159736605
  0.6697022071716652  0.8315503895414038  0.5661964807437512
  0.6782094233230287  0.6611517678892856  0.5487429247422526
  0.8285458397183413  0.5081220146718698  0.3980044335749963
  0.0237264584664695  0.8624618731827467  0.5790551601089535
  0.8562905499069298  0.8704632601566840  0.5994658428932400
 -0.0002302425250685  0.6781639209354731  0.4509586228748026
  0.6680567795693184  0.4850984068728308  0.5080268273895038
  0.5094353144300718  0.5051292410288721  0.4842275709965809
  0.2874711123136898  0.6013112557800657  0.5722971943152249
  0.2935604157331049  0.5984542920008875  0.7763771628035187
  0.2210277817411056  0.5144248993973281  0.8099676849054676

  0.00000000E+00  0.00000000E+00  0.00000000E+00
  0.00000000E+00  0.00000000E+00  0.00000000E+00
  0.00000000E+00  0.00000000E+00  0.00000000E+00
  0.00000000E+00  0.00000000E+00  0.00000000E+00
  0.00000000E+00  0.00000000E+00  0.00000000E+00
  0.00000000E+00  0.00000000E+00  0.00000000E+00
  0.00000000E+00  0.00000000E+00  0.00000000E+00
  0.00000000E+00  0.00000000E+00  0.00000000E+00
  0.00000000E+00  0.00000000E+00  0.00000000E+00
  0.00000000E+00  0.00000000E+00  0.00000000E+00
  0.00000000E+00  0.00000000E+00  0.00000000E+00
  0.00000000E+00  0.00000000E+00  0.00000000E+00
  0.00000000E+00  0.00000000E+00  0.00000000E+00
  0.00000000E+00  0.00000000E+00  0.00000000E+00
  0.00000000E+00  0.00000000E+00  0.00000000E+00
  0.00000000E+00  0.00000000E+00  0.00000000E+00
  0.00000000E+00  0.00000000E+00  0.00000000E+00
  0.00000000E+00  0.00000000E+00  0.00000000E+00
  0.00000000E+00  0.00000000E+00  0.00000000E+00
  0.00000000E+00  0.00000000E+00  0.00000000E+00
  0.00000000E+00  0.00000000E+00  0.00000000E+00
  0.00000000E+00  0.00000000E+00  0.00000000E+00
  0.00000000E+00  0.00000000E+00  0.00000000E+00
  0.00000000E+00  0.00000000E+00  0.00000000E+00
  0.00000000E+00  0.00000000E+00  0.00000000E+00
  0.00000000E+00  0.00000000E+00  0.00000000E+00
  0.00000000E+00  0.00000000E+00  0.00000000E+00
  0.00000000E+00  0.00000000E+00  0.00000000E+00
  0.00000000E+00  0.00000000E+00  0.00000000E+00
  0.00000000E+00  0.00000000E+00  0.00000000E+00
  0.00000000E+00  0.00000000E+00  0.00000000E+00
  0.00000000E+00  0.00000000E+00  0.00000000E+00
  0.00000000E+00  0.00000000E+00  0.00000000E+00
  0.00000000E+00  0.00000000E+00  0.00000000E+00
  0.00000000E+00  0.00000000E+00  0.00000000E+00
  0.00000000E+00  0.00000000E+00  0.00000000E+00
  0.00000000E+00  0.00000000E+00  0.00000000E+00
  0.00000000E+00  0.00000000E+00  0.00000000E+00
  0.00000000E+00  0.00000000E+00  0.00000000E+00
  0.00000000E+00  0.00000000E+00  0.00000000E+00
  0.00000000E+00  0.00000000E+00  0.00000000E+00
  0.00000000E+00  0.00000000E+00  0.00000000E+00
  0.00000000E+00  0.00000000E+00  0.00000000E+00
  0.00000000E+00  0.00000000E+00  0.00000000E+00
  0.00000000E+00  0.00000000E+00  0.00000000E+00
  0.00000000E+00  0.00000000E+00  0.00000000E+00
  0.00000000E+00  0.00000000E+00  0.00000000E+00
  0.00000000E+00  0.00000000E+00  0.00000000E+00
  0.00000000E+00  0.00000000E+00  0.00000000E+00
  0.00000000E+00  0.00000000E+00  0.00000000E+00
  0.00000000E+00  0.00000000E+00  0.00000000E+00
  0.00000000E+00  0.00000000E+00  0.00000000E+00
  0.00000000E+00  0.00000000E+00  0.00000000E+00
  0.00000000E+00  0.00000000E+00  0.00000000E+00
  0.00000000E+00  0.00000000E+00  0.00000000E+00
  0.00000000E+00  0.00000000E+00  0.00000000E+00
  0.00000000E+00  0.00000000E+00  0.00000000E+00
  0.00000000E+00  0.00000000E+00  0.00000000E+00
  0.00000000E+00  0.00000000E+00  0.00000000E+00
