POSCAR-c3n4                             
   1.1399999999999999     
    13.8434242346000005   -0.1907404740000000    0.0000000000000000
    -6.9217121174000003   11.6951909939000007    0.0000000000000000
     0.0000000000000000    0.0000000000000000   15.0000000000000000
   C    N    Ge   C    O 
    24    32     1     1     1
Direct
  0.9891443705826859  0.1508327804286296  0.5082119089166639
  0.3706258437875860  0.3631867239667201  0.3667454918751289
  0.0158745715024509  0.3250843189052048  0.5130111740528207
  0.5291717180013435  0.1009577909305577  0.5454891294945980
  0.5091573577733470  0.3735506007766460  0.4101919368019082
  0.0162290092949746  0.0210125932162626  0.4912248219680748
  0.0601761695711147  0.7459954318138173  0.4727906960698220
  0.4031944327869894  0.9493857969856165  0.5834402428667147
  0.0327059182048401  0.8809752929941439  0.4923585869136531
  0.4676042589202751  0.5036727321449277  0.4365182382430035
  0.5399743875499468  0.9482175349289079  0.5510522849961390
  0.1094920944213769  0.6284473595266462  0.4906743591708391
  0.6615242950488778  0.2430300890291903  0.4943860159118358
  0.8099356643697604  0.4157910462383398  0.4794027171268596
  0.6420133958440388  0.3894531950795468  0.4743787404626687
  0.8514111104588480  0.9937315632959596  0.5120636752332715
  0.9651463799987425  0.4451578333979853  0.5014308756891950
  0.6700879316082222  0.1004743913752293  0.4876462579685779
  0.5854225505379702  0.6484156832321304  0.4985489991536483
  0.7149098557909355  0.8149524870707694  0.5196671833510109
  0.6837437101810764  0.9632621769973824  0.5107173646339120
  0.9375168273045063  0.5784910577043334  0.4612269765208694
  0.8779853541084606  0.8521427868198757  0.5224134264444089
  0.6105731179672205  0.5145317382772561  0.4989256261614443
  0.0272800172723890  0.2539411912582565  0.5136275655624303
  0.0528493450720902  0.1225911629444312  0.4915826667355603
  0.4369782515613352  0.0456469542857647  0.5760697799555459
  0.5707166723566814  0.3397544490067190  0.4210654339120197
  0.4275173641835934  0.3246844694636906  0.3651772184198308
  0.5736338039501518  0.1992566757350289  0.5316587632207330
  0.0728813068427954  0.9836206996883305  0.4808943012486253
  0.9121103110515918  0.9549493299310186  0.5033147045767450
  0.0907348238995809  0.8444685280996183  0.4770442072777428
  0.1316452291645831  0.7232837034720987  0.4872162910887354
  0.3803407960841625  0.4445410746924168  0.3981353603382232
  0.5979224088311241  0.9095006686325391  0.5491948221470793
  0.4441756603477387  0.8945101255781012  0.5746925149367499
  0.4952885815368404  0.5950582954372976  0.4619532687688448
  0.1784601961307928  0.6050136424756047  0.4988516776905954
  0.0056487533290976  0.5480356974868954  0.4859950665180435
  0.7064602071273356  0.3484549899284701  0.4838747317785632
  0.7078236310806503  0.1970726099107694  0.4670151127374496
  0.7488912385408213  0.9247574609626028  0.5130641667299614
  0.0282119412962558  0.4107921174996036  0.5117919687452925
  0.8685940684491484  0.3817717387874637  0.5056683430753708
  0.8894993802406361  0.0915988732464186  0.5200632079016430
  0.7160460933884636  0.0500528115192651  0.4719062357084240
  0.5794440325865722  0.0497407377863013  0.5290161817787791
  0.6208815183124727  0.7498185181134289  0.5035691119020811
  0.6343757444316225  0.6039301216672328  0.5266203625668098
  0.8407988722386506  0.5061029147622591  0.4504159744322465
  0.9401951729317943  0.8201546338380723  0.5238146300878910
  0.7819291940078301  0.7912594860511817  0.5358563869074686
  0.9659108648494836  0.6735789385770516  0.4506370190011921
  0.6623965531616136  0.4694178529750062  0.5169241245543930
  0.5296139560988138  0.4637478326424684  0.4467785689703376
  0.3036436937323899  0.6474671246265729  0.5097231222797589
  0.2805424287652940  0.6187239266686149  0.6703563969160982
  0.2530588431229717  0.5672701487585812  0.7239139813750128

  0.00000000E+00  0.00000000E+00  0.00000000E+00
  0.00000000E+00  0.00000000E+00  0.00000000E+00
  0.00000000E+00  0.00000000E+00  0.00000000E+00
  0.00000000E+00  0.00000000E+00  0.00000000E+00
  0.00000000E+00  0.00000000E+00  0.00000000E+00
  0.00000000E+00  0.00000000E+00  0.00000000E+00
  0.00000000E+00  0.00000000E+00  0.00000000E+00
  0.00000000E+00  0.00000000E+00  0.00000000E+00
  0.00000000E+00  0.00000000E+00  0.00000000E+00
  0.00000000E+00  0.00000000E+00  0.00000000E+00
  0.00000000E+00  0.00000000E+00  0.00000000E+00
  0.00000000E+00  0.00000000E+00  0.00000000E+00
  0.00000000E+00  0.00000000E+00  0.00000000E+00
  0.00000000E+00  0.00000000E+00  0.00000000E+00
  0.00000000E+00  0.00000000E+00  0.00000000E+00
  0.00000000E+00  0.00000000E+00  0.00000000E+00
  0.00000000E+00  0.00000000E+00  0.00000000E+00
  0.00000000E+00  0.00000000E+00  0.00000000E+00
  0.00000000E+00  0.00000000E+00  0.00000000E+00
  0.00000000E+00  0.00000000E+00  0.00000000E+00
  0.00000000E+00  0.00000000E+00  0.00000000E+00
  0.00000000E+00  0.00000000E+00  0.00000000E+00
  0.00000000E+00  0.00000000E+00  0.00000000E+00
  0.00000000E+00  0.00000000E+00  0.00000000E+00
  0.00000000E+00  0.00000000E+00  0.00000000E+00
  0.00000000E+00  0.00000000E+00  0.00000000E+00
  0.00000000E+00  0.00000000E+00  0.00000000E+00
  0.00000000E+00  0.00000000E+00  0.00000000E+00
  0.00000000E+00  0.00000000E+00  0.00000000E+00
  0.00000000E+00  0.00000000E+00  0.00000000E+00
  0.00000000E+00  0.00000000E+00  0.00000000E+00
  0.00000000E+00  0.00000000E+00  0.00000000E+00
  0.00000000E+00  0.00000000E+00  0.00000000E+00
  0.00000000E+00  0.00000000E+00  0.00000000E+00
  0.00000000E+00  0.00000000E+00  0.00000000E+00
  0.00000000E+00  0.00000000E+00  0.00000000E+00
  0.00000000E+00  0.00000000E+00  0.00000000E+00
  0.00000000E+00  0.00000000E+00  0.00000000E+00
  0.00000000E+00  0.00000000E+00  0.00000000E+00
  0.00000000E+00  0.00000000E+00  0.00000000E+00
  0.00000000E+00  0.00000000E+00  0.00000000E+00
  0.00000000E+00  0.00000000E+00  0.00000000E+00
  0.00000000E+00  0.00000000E+00  0.00000000E+00
  0.00000000E+00  0.00000000E+00  0.00000000E+00
  0.00000000E+00  0.00000000E+00  0.00000000E+00
  0.00000000E+00  0.00000000E+00  0.00000000E+00
  0.00000000E+00  0.00000000E+00  0.00000000E+00
  0.00000000E+00  0.00000000E+00  0.00000000E+00
  0.00000000E+00  0.00000000E+00  0.00000000E+00
  0.00000000E+00  0.00000000E+00  0.00000000E+00
  0.00000000E+00  0.00000000E+00  0.00000000E+00
  0.00000000E+00  0.00000000E+00  0.00000000E+00
  0.00000000E+00  0.00000000E+00  0.00000000E+00
  0.00000000E+00  0.00000000E+00  0.00000000E+00
  0.00000000E+00  0.00000000E+00  0.00000000E+00
  0.00000000E+00  0.00000000E+00  0.00000000E+00
  0.00000000E+00  0.00000000E+00  0.00000000E+00
  0.00000000E+00  0.00000000E+00  0.00000000E+00
  0.00000000E+00  0.00000000E+00  0.00000000E+00
