POSCAR-clean                            
   1.00000000000000     
    14.8568849057701815    0.0000204971428544    0.0000000000000000
    -7.4284424528351627   12.7543188562644740    0.0000000000000000
     0.0000000000000000    0.0000000000000000   15.0000000000000000
   C    N    C    Cr
    67     1     2     1
Direct
 -0.0006008142434424 -0.0001061904013298  0.4976379609685114
  0.0555345986734829  0.1112601843093384  0.4977250324197280
  0.1678228491237267  0.0020237164376497  0.4975301466432267
  0.2235194191698194  0.1133558007059169  0.4982469345596201
  0.3344459324058188  0.0020092835404092  0.4977296351230150
  0.3900865547520823  0.1133382291288058  0.4983822025592125
  0.5007317615456354 -0.0001377486222759  0.4977238934187831
  0.5559639164910252  0.1112285974960212  0.4976562625657744
  0.6665011401653260  0.9972527703599041  0.4983004877001372
  0.7219907285750000  0.1085161765855488  0.4975684556235424
  0.8310209018580903  0.9972694320566164  0.4984223720413901
  0.8867867134142544  0.1085301734833684  0.4977702493054098
  0.9985622023329925  0.1648837415522738  0.4978174791191862
  0.0540571470450465  0.2763085050184673  0.4984945664872126
  0.1672829869097977  0.1681019485779725  0.4983545609682535
  0.2229938013924880  0.2796782818096564  0.5000443180237806
  0.3352266423744877  0.1701903368974947  0.4994110746635820
  0.3908719671541641  0.2814768088756230  0.5025288909483090
  0.5010657933966223  0.1680780989126337  0.4984072494627915
  0.5569293267216712  0.2796591675745544  0.5000261924329805
  0.6665590007273413  0.1648608783080676  0.4975196396236383
  0.7224805372300872  0.2762883912396703  0.4980259232171509
  0.8326596839612307  0.1650718430901923  0.4976442917955337
  0.8882739970012317  0.2763123651084893  0.4977636572115778
  0.9991013322561832  0.3321781925372698  0.4983152831534932
  0.0544339762592318  0.4437192384177652  0.4987513465024738
  0.1652435265930431  0.3327490634437554  0.5000347669547448
  0.2192606471892162  0.4439589261525940  0.5018033236112366
  0.3355184668478652  0.3379940181393035  0.5033590198043960
  0.3879072463578115  0.4487598843560802  0.5093252222791126
  0.5027459611400169  0.3379985002728605  0.5035190698318570
  0.5611289087203947  0.4487687743366770  0.5096362755251755
  0.6677411496527413  0.3327345713760880  0.4996728380986963
  0.7249224301690330  0.4439517475802327  0.5013107796377342
  0.8333040603859063  0.3321685821789744  0.4979014804258262
  0.8895020932798506  0.4437154349485918  0.4982309869972461
 -0.0000226529068747  0.4997393358110921  0.4982743613749258
  0.0557802600933585  0.6113485168123028  0.4982821748358056
  0.1647183289187861  0.4998490917573944  0.5003292459337118
  0.2204907389608932  0.6112646561355568  0.5003060384992364
  0.3293251639028908  0.4996631665801755  0.5052184983705839
  0.3857953557647795  0.6121700170590050  0.5051565710464710
  0.6705947014047358  0.4996616420645139  0.5051881723021153
  0.7266319698394316  0.6121704678276276  0.5051290816836727
  0.8353491798488283  0.4998479891535189  0.4995690434714163
  0.8909902396050896  0.6112641886720588  0.4995467570940567
  0.0013097037969116  0.6674119097068042  0.4982425141808108
  0.0567275503607790  0.7789777033531688  0.4979056775847041
  0.1663134703953766  0.6674062721019869  0.4987620079704945
  0.2224715807057168  0.7789671612595278  0.4983148859192916
  0.3310773372528797  0.6671525523721449  0.5016908206364483
  0.3882388550943771  0.7783602821758493  0.4999909303279781
  0.4957983489580233  0.6631148567732975  0.5096209172300070
  0.5537589477588850  0.7742213180571665  0.5033229543466676
  0.6675884915112924  0.6631095839508091  0.5099452399566710
  0.7207338825698053  0.7742190795219218  0.5034898316349044
  0.8363039685708149  0.6671581663191026  0.5011998961945017
  0.8903724681032482  0.7783748140201707  0.4996237304995608
  0.0013423104348323  0.8345925111957690  0.4980276716289428
  0.0562562736548028  0.9456975057545278  0.4975207660014885
  0.1675566061475281  0.8348828350571400  0.4977462221819090
  0.2232890423975568  0.9463338894378398  0.4976101822381724
  0.3334764117473206  0.8345719876513179  0.4984885220496395
  0.3896772408825877  0.9456739799696294  0.4978166666361802
  0.4988596363349186  0.8314117388750631  0.4999682645801569
  0.5555862820668104  0.9426429137603293  0.4983546459293656
  0.6655026047072520  0.8307316156465379  0.5025357984310792
  0.7207175928368611  0.9411716256700162  0.4994705905282145
  0.8328175444889421  0.8314314395804576  0.4999329111115519
  0.8873268137370484  0.9426675034012219  0.4983846805444824
  0.5278873241411703  0.5558098588592530  0.5551018363537251
 
  0.00000000E+00  0.00000000E+00  0.00000000E+00
  0.00000000E+00  0.00000000E+00  0.00000000E+00
  0.00000000E+00  0.00000000E+00  0.00000000E+00
  0.00000000E+00  0.00000000E+00  0.00000000E+00
  0.00000000E+00  0.00000000E+00  0.00000000E+00
  0.00000000E+00  0.00000000E+00  0.00000000E+00
  0.00000000E+00  0.00000000E+00  0.00000000E+00
  0.00000000E+00  0.00000000E+00  0.00000000E+00
  0.00000000E+00  0.00000000E+00  0.00000000E+00
  0.00000000E+00  0.00000000E+00  0.00000000E+00
  0.00000000E+00  0.00000000E+00  0.00000000E+00
  0.00000000E+00  0.00000000E+00  0.00000000E+00
  0.00000000E+00  0.00000000E+00  0.00000000E+00
  0.00000000E+00  0.00000000E+00  0.00000000E+00
  0.00000000E+00  0.00000000E+00  0.00000000E+00
  0.00000000E+00  0.00000000E+00  0.00000000E+00
  0.00000000E+00  0.00000000E+00  0.00000000E+00
  0.00000000E+00  0.00000000E+00  0.00000000E+00
  0.00000000E+00  0.00000000E+00  0.00000000E+00
  0.00000000E+00  0.00000000E+00  0.00000000E+00
  0.00000000E+00  0.00000000E+00  0.00000000E+00
  0.00000000E+00  0.00000000E+00  0.00000000E+00
  0.00000000E+00  0.00000000E+00  0.00000000E+00
  0.00000000E+00  0.00000000E+00  0.00000000E+00
  0.00000000E+00  0.00000000E+00  0.00000000E+00
  0.00000000E+00  0.00000000E+00  0.00000000E+00
  0.00000000E+00  0.00000000E+00  0.00000000E+00
  0.00000000E+00  0.00000000E+00  0.00000000E+00
  0.00000000E+00  0.00000000E+00  0.00000000E+00
  0.00000000E+00  0.00000000E+00  0.00000000E+00
  0.00000000E+00  0.00000000E+00  0.00000000E+00
  0.00000000E+00  0.00000000E+00  0.00000000E+00
  0.00000000E+00  0.00000000E+00  0.00000000E+00
  0.00000000E+00  0.00000000E+00  0.00000000E+00
  0.00000000E+00  0.00000000E+00  0.00000000E+00
  0.00000000E+00  0.00000000E+00  0.00000000E+00
  0.00000000E+00  0.00000000E+00  0.00000000E+00
  0.00000000E+00  0.00000000E+00  0.00000000E+00
  0.00000000E+00  0.00000000E+00  0.00000000E+00
  0.00000000E+00  0.00000000E+00  0.00000000E+00
  0.00000000E+00  0.00000000E+00  0.00000000E+00
  0.00000000E+00  0.00000000E+00  0.00000000E+00
  0.00000000E+00  0.00000000E+00  0.00000000E+00
  0.00000000E+00  0.00000000E+00  0.00000000E+00
  0.00000000E+00  0.00000000E+00  0.00000000E+00
  0.00000000E+00  0.00000000E+00  0.00000000E+00
  0.00000000E+00  0.00000000E+00  0.00000000E+00
  0.00000000E+00  0.00000000E+00  0.00000000E+00
  0.00000000E+00  0.00000000E+00  0.00000000E+00
  0.00000000E+00  0.00000000E+00  0.00000000E+00
  0.00000000E+00  0.00000000E+00  0.00000000E+00
  0.00000000E+00  0.00000000E+00  0.00000000E+00
  0.00000000E+00  0.00000000E+00  0.00000000E+00
  0.00000000E+00  0.00000000E+00  0.00000000E+00
  0.00000000E+00  0.00000000E+00  0.00000000E+00
  0.00000000E+00  0.00000000E+00  0.00000000E+00
  0.00000000E+00  0.00000000E+00  0.00000000E+00
  0.00000000E+00  0.00000000E+00  0.00000000E+00
  0.00000000E+00  0.00000000E+00  0.00000000E+00
  0.00000000E+00  0.00000000E+00  0.00000000E+00
  0.00000000E+00  0.00000000E+00  0.00000000E+00
  0.00000000E+00  0.00000000E+00  0.00000000E+00
  0.00000000E+00  0.00000000E+00  0.00000000E+00
  0.00000000E+00  0.00000000E+00  0.00000000E+00
  0.00000000E+00  0.00000000E+00  0.00000000E+00
  0.00000000E+00  0.00000000E+00  0.00000000E+00
  0.00000000E+00  0.00000000E+00  0.00000000E+00
  0.00000000E+00  0.00000000E+00  0.00000000E+00
  0.00000000E+00  0.00000000E+00  0.00000000E+00
  0.00000000E+00  0.00000000E+00  0.00000000E+00
  0.00000000E+00  0.00000000E+00  0.00000000E+00
