POSCAR-clean
1.0
14.8605368174 1.1824e-05 0.0
-7.4302684087 12.756349395 0.0
0.0 0.0 15.0
C N C Cr C O
36 1 33 1 1 1
Cartesian
-7.4284194506 12.7538895601 7.2536155362
0.0006507395 1.4234566923 7.2547280033
2.4818816266 0.0238776177 7.2523266891
2.4803612883 1.4460927066 7.2630343906
4.9520811984 0.0237803421 7.2549390708
4.953640151 1.4459630164 7.2646441384
0.0018061464 12.7537656685 7.254853024
7.4332574276 1.4233265327 7.2536287616
2.4796840073 12.7302483539 7.2632780557
9.9108593634 1.3953447167 7.2522919441
4.9543356465 12.7303823309 7.2648132239
12.3836360958 1.3954514172 7.2548631146
13.6155170646 2.1169047198 7.2559147809
-1.2509942319 3.5390071348 7.2658350708
1.2382475258 2.1464951259 7.2652185505
1.2362501853 3.5713066819 7.291603265
3.7170404555 2.1692144657 7.2790944599
3.717109094 3.5926640552 7.3253632394
6.1957232179 2.1463929233 7.265512054
6.1977148624 3.5713283788 7.2908287882
8.6789585398 2.1167800916 7.2519529423
8.6848606242 3.5388754853 7.2595824703
11.1472129502 2.1058741011 7.252756741
11.1471783004 3.5248620216 7.2546377061
12.3691339427 4.2479021227 7.2631470268
-2.5000223548 5.6694630547 7.2709934693
-0.0180293025 4.248450867 7.2897346153
-0.0478837567 5.662926406 7.3172570818
2.4760325803 4.3128986307 7.3402693034
2.4328462647 5.7281963698 7.4285739943
4.9581273905 4.3133362582 7.3421408073
5.0014870836 5.7288324519 7.4324371197
7.4519163338 4.248351684 7.284501632
7.4816708854 5.66290023 7.3101956599
9.925224833 4.2478427207 7.2579703484
9.9337872872 5.6694641739 7.2647885612
11.1471277156 6.3743877627 7.2638187112
-3.7134037071 7.7857390507 7.2618751067
-1.2783880244 6.3793702161 7.2944509162
-1.2638407565 7.7996914961 7.2942208685
1.1771027911 6.3708998407 7.3707277877
1.1830085131 7.8015079285 7.3705146285
6.2571826183 6.3709123832 7.3692846231
6.2512582638 7.8014689161 7.3690726959
8.7121413119 6.3794086171 7.2847166444
8.6976000617 7.7996481118 7.2842990921
-4.935332707 8.4999733881 7.2621924349
-4.9390183915 9.9287147741 7.2572790505
-2.491427778 8.4999803197 7.2689209269
-2.4876858294 9.9286804449 7.2626922687
-0.0400204697 8.5098954077 7.3177859526
-0.0167635017 9.9279785799 7.290102087
2.4364300889 8.444855272 7.4262210038
2.4763210103 9.8613384999 7.33997965
4.997887386 8.4441927892 7.4300456818
4.9578314129 9.8608853821 7.341819246
7.4738249232 8.5099061189 7.3106294837
7.4506531117 9.928072551 7.2848293996
-6.1763812992 10.6398909344 7.2597627307
-6.1825450785 12.0606481077 7.2521297085
-3.7133503516 10.6450721226 7.2545898211
-3.7133330529 12.069436778 7.2529923658
-1.2502667807 10.6397976466 7.2660528138
-1.2440515285 12.0605455093 7.2561581027
1.2362350544 10.6042069077 7.2917440544
1.237896387 12.0298223202 7.2654289193
3.7171183395 10.5829017045 7.3257614653
3.7170410398 12.0065954105 7.2796367047
6.1977471788 10.6041618939 7.2908973353
6.1960690196 12.0299220697 7.2655932645
3.7138562329 7.0838702949 8.1103705442
3.7138562329 7.0838702949 14.0903705442
3.3928422863 6.3580266022 14.9357077279