POSCAR-c3n4                             
   1.2000000000000000     
    13.8434242346000005   -0.1907404740000000    0.0000000000000000
    -6.9217121174000003   11.6951909939000007    0.0000000000000000
     0.0000000000000000    0.0000000000000000   15.0000000000000000
   C    N    Ge   C    O 
    24    32     1     1     1
Direct
  0.1056793616012044  0.2135190855990530  0.4363845160199986
  0.2875040264020257  0.3986633385982898  0.4430784776199985
  0.1037930053994671  0.3917731310021040  0.4372077352199994
  0.4473282799000273  0.0638388669010297  0.5156141302200012
  0.4525891553993659  0.4012488930001865  0.4224458247200005
  0.1120348125981536  0.0527392133981550  0.4586016858199997
  0.0963801489967224  0.7119107014965778  0.4938216361200034
  0.2843394569984383  0.8900636383992477  0.5111215870199999
  0.1094144051957571  0.8953741312964638  0.5080457227199986
  0.4479252140997474  0.5482709010993005  0.5118241722200025
  0.4454478432000855  0.8852018316976640  0.4988903697200016
  0.0869084166012613  0.5421043645019523  0.4905915511199979
  0.6161481303032872  0.2229268412023444  0.4826248715200023
  0.7802373481975167  0.3896827633002999  0.4098030836199982
  0.6103774269976867  0.3943233933973218  0.4453819771200003
  0.9395164229986648  0.0522978273012029  0.4706205664200027
  0.9407185438006067  0.3865288830001106  0.4038003963200012
  0.6227839375974753  0.0655810552009797  0.5219520415200023
  0.6132290248956025  0.7111845425968113  0.5411691420200029
  0.7898487093988962  0.8972729530960564  0.5328004697200015
  0.6094429658003691  0.8924826857993935  0.5312473866200023
  0.9383200505031013  0.5628341935014092  0.4304299049199969
  0.9543602264995528  0.9017187821019590  0.5445848782200002
  0.6213054842982757  0.5546550731969475  0.4997806308199984
  0.1666892612026558  0.3354523719996365  0.4349487124200024
  0.1647395021011491  0.1609702864963225  0.4308724231200003
  0.3362658351996828  0.0018066875014711  0.5320780211200002
  0.5117572231037926  0.3524685871019813  0.4023064991200016
  0.3447172783988250  0.3607455112001432  0.3996732379199983
  0.5056575081979915  0.1767350746963814  0.5030720623200011
  0.1587320951993121  0.9882190412970147  0.4565769073199988
  0.0021473113980051  0.0018637196010971  0.4927621776200013
  0.1646263449972452  0.8308306871983291  0.5101799272200012
  0.1340072292012522  0.6452680078977266  0.5277083413200003
  0.3337134626970837  0.4911623764974067  0.5014709837199973
  0.5028834498987180  0.8307812550960634  0.4996437793200030
  0.3330723677999075  0.8293276986984921  0.4892940872200029
  0.4990219010010293  0.6480320406042352  0.5547541164199998
  0.1417367574972772  0.4836463056959488  0.4950364663200020
  0.9883951232974653  0.4959557328001196  0.4459083414200009
  0.6673644316046392  0.3301538127020720  0.4392380661199979
  0.6797014230014540  0.1780210287961665  0.5051580738199988
  0.8272018334034783  0.9862248386035759  0.4777695521200016
  0.0109721573986761  0.3480999252022841  0.3887228045200004
  0.8304798076026501  0.3301654398003038  0.3894489752199988
  0.9929617254985743  0.1610187591008696  0.4450512398200033
  0.6688676148026502  0.0052443662033994  0.5494012807199979
  0.5048489922016444  0.0038834700001615  0.5082295241199972
  0.6683036442018135  0.8322764078028229  0.5441195583199985
  0.6753645474011662  0.6655146212023126  0.5223850228200035
  0.8321140369962166  0.5066691223964952  0.4056669941199971
  0.0158437970968066  0.8529949217991799  0.5585975769200004
  0.8492433213997401  0.8595643644989153  0.5759700436200035
  0.0042417476029399  0.6772638327992837  0.4444751349199976
  0.6675314055979911  0.4912777111985989  0.4937411116199968
  0.5056556597992525  0.5017963438982633  0.4770816116200010
  0.2867655002982943  0.5928820247031723  0.5677151475199977
  0.2867655002982943  0.5928820247031723  0.9663818141866685
  0.2320990865120294  0.5299270211669764  0.0227376264333330

  0.00000000E+00  0.00000000E+00  0.00000000E+00
  0.00000000E+00  0.00000000E+00  0.00000000E+00
  0.00000000E+00  0.00000000E+00  0.00000000E+00
  0.00000000E+00  0.00000000E+00  0.00000000E+00
  0.00000000E+00  0.00000000E+00  0.00000000E+00
  0.00000000E+00  0.00000000E+00  0.00000000E+00
  0.00000000E+00  0.00000000E+00  0.00000000E+00
  0.00000000E+00  0.00000000E+00  0.00000000E+00
  0.00000000E+00  0.00000000E+00  0.00000000E+00
  0.00000000E+00  0.00000000E+00  0.00000000E+00
  0.00000000E+00  0.00000000E+00  0.00000000E+00
  0.00000000E+00  0.00000000E+00  0.00000000E+00
  0.00000000E+00  0.00000000E+00  0.00000000E+00
  0.00000000E+00  0.00000000E+00  0.00000000E+00
  0.00000000E+00  0.00000000E+00  0.00000000E+00
  0.00000000E+00  0.00000000E+00  0.00000000E+00
  0.00000000E+00  0.00000000E+00  0.00000000E+00
  0.00000000E+00  0.00000000E+00  0.00000000E+00
  0.00000000E+00  0.00000000E+00  0.00000000E+00
  0.00000000E+00  0.00000000E+00  0.00000000E+00
  0.00000000E+00  0.00000000E+00  0.00000000E+00
  0.00000000E+00  0.00000000E+00  0.00000000E+00
  0.00000000E+00  0.00000000E+00  0.00000000E+00
  0.00000000E+00  0.00000000E+00  0.00000000E+00
  0.00000000E+00  0.00000000E+00  0.00000000E+00
  0.00000000E+00  0.00000000E+00  0.00000000E+00
  0.00000000E+00  0.00000000E+00  0.00000000E+00
  0.00000000E+00  0.00000000E+00  0.00000000E+00
  0.00000000E+00  0.00000000E+00  0.00000000E+00
  0.00000000E+00  0.00000000E+00  0.00000000E+00
  0.00000000E+00  0.00000000E+00  0.00000000E+00
  0.00000000E+00  0.00000000E+00  0.00000000E+00
  0.00000000E+00  0.00000000E+00  0.00000000E+00
  0.00000000E+00  0.00000000E+00  0.00000000E+00
  0.00000000E+00  0.00000000E+00  0.00000000E+00
  0.00000000E+00  0.00000000E+00  0.00000000E+00
  0.00000000E+00  0.00000000E+00  0.00000000E+00
  0.00000000E+00  0.00000000E+00  0.00000000E+00
  0.00000000E+00  0.00000000E+00  0.00000000E+00
  0.00000000E+00  0.00000000E+00  0.00000000E+00
  0.00000000E+00  0.00000000E+00  0.00000000E+00
  0.00000000E+00  0.00000000E+00  0.00000000E+00
  0.00000000E+00  0.00000000E+00  0.00000000E+00
  0.00000000E+00  0.00000000E+00  0.00000000E+00
  0.00000000E+00  0.00000000E+00  0.00000000E+00
  0.00000000E+00  0.00000000E+00  0.00000000E+00
  0.00000000E+00  0.00000000E+00  0.00000000E+00
  0.00000000E+00  0.00000000E+00  0.00000000E+00
  0.00000000E+00  0.00000000E+00  0.00000000E+00
  0.00000000E+00  0.00000000E+00  0.00000000E+00
  0.00000000E+00  0.00000000E+00  0.00000000E+00
  0.00000000E+00  0.00000000E+00  0.00000000E+00
  0.00000000E+00  0.00000000E+00  0.00000000E+00
  0.00000000E+00  0.00000000E+00  0.00000000E+00
  0.00000000E+00  0.00000000E+00  0.00000000E+00
  0.00000000E+00  0.00000000E+00  0.00000000E+00
  0.00000000E+00  0.00000000E+00  0.00000000E+00
  0.00000000E+00  0.00000000E+00  0.00000000E+00
  0.00000000E+00  0.00000000E+00  0.00000000E+00
