POSCAR-clean                            
   1.00000000000000     
    14.8571429462628295    0.0074808514384851    0.0000000000000000
    -7.4285714730814858   12.7495032627210723    0.0000000000000000
     0.0000000000000000    0.0000000000000000   15.0000000000000000
   C    N    C    Cr
     8     1    61     1
Direct
 -0.0003442860814004 -0.0001653564003509  0.4976392239310897
  0.0555968638108530  0.1112148513283607  0.4977225337583992
  0.1679697846592320  0.0019321857086005  0.4975278930088765
  0.2235539495510393  0.1133304459342762  0.4982363044752028
  0.3347034277845330  0.0020155459948862  0.4977214531007738
  0.3900522721031309  0.1131859580505846  0.4983717572488993
  0.5009883720271865  0.0000384902535493  0.4977088076485617
  0.5556511239816192  0.1113837686181233  0.4976589717181368
  0.6658177795981269  0.9977879910399514  0.4982982744243099
  0.7210898050966266  0.1081807983167248  0.4976326768969971
  0.8316369056107630  0.9981100491878516  0.4983247903618440
  0.8879554092430310  0.1091632709257300  0.4977190572395022
  0.9989222214482264  0.1654009008982189  0.4978090330279538
  0.0542852888100671  0.2767891674740274  0.4984839581231342
  0.1673712378508927  0.1680672919761857  0.4983630630484475
  0.2230462714369146  0.2796946290090018  0.5000794758466039
  0.3352057538940958  0.1700857462330879  0.4994008267253514
  0.3908066613348106  0.2813816706839575  0.5025336692534697
  0.5010739525156864  0.1679195294612235  0.4983946344502637
  0.5570822684636019  0.2797470507328094  0.5000588521550042
  0.6664692118289735  0.1645333025153518  0.4975628376123422
  0.7226687000813991  0.2761047119330539  0.4980214624803910
  0.8317193743504534  0.1638684951491504  0.4976384651967813
  0.8875157656526846  0.2757717278783252  0.4977491220094314
  0.9987406217852557  0.3319234930095014  0.4983027586877795
  0.0542997146787546  0.4436218307271813  0.4987537464103681
  0.1653104060967297  0.3329612479690063  0.5000169177143896
  0.2191755813346540  0.4440184659742226  0.5017211265943525
  0.3354878810599304  0.3379053307016004  0.5033794787508992
  0.3879855634967335  0.4489617548582727  0.5093478450880741
  0.5029218191604182  0.3379303479542540  0.5036138996821568
  0.5612274261545123  0.4486747145547573  0.5097788535152866
  0.6677281009254568  0.3325361788852134  0.4996460826644490
  0.7248473166929849  0.4437671353364069  0.5012516042867734
  0.8332441468802019  0.3319466235746952  0.4979008217567311
  0.8895341470187608  0.4437826104242078  0.4982439596079472
 -0.0000612752640681  0.4997837269712527  0.4982687074453993
  0.0557160744756110  0.6113132187143236  0.4982634693170546
  0.1646229762892042  0.4998611049414849  0.5002858001273854
  0.2205244538950963  0.6115288906167193  0.5002683019112797
  0.3291995476585796  0.4996444580003616  0.5052330645555738
  0.3852352563396551  0.6119355665450449  0.5051978051396990
  0.6706223650287924  0.4993915623234373  0.5052256107617074
  0.7267624696965229  0.6120856142589335  0.5051391912610051
  0.8355088269914953  0.4998329659592991  0.4995475911872387
  0.8911488808435621  0.6112682341860098  0.4995487835924070
  0.0013112016689390  0.6673098572276500  0.4982482718235736
  0.0567208789498756  0.7789679247887747  0.4978989227787445
  0.1664126365050303  0.6674699703722747  0.4987520408549718
  0.2225511303732918  0.7789378257805868  0.4983076801489920
  0.3312945518365785  0.6676722270035140  0.5016572770864077
  0.3886509611008758  0.7790061281194205  0.4999559590782175
  0.4949526846396487  0.6627197908172303  0.5095025111513326
  0.5528728243552158  0.7728871034083571  0.5035501505217337
  0.6680184290348272  0.6630178866450758  0.5096151704423808
  0.7205753780513239  0.7739859905342896  0.5035242220926148
  0.8364677349370815  0.6673557368860131  0.5011865328943109
  0.8903078580128304  0.7783650259433968  0.4996190180025991
  0.0013576820099396  0.8344899683771461  0.4980188669214781
  0.0565296991533081  0.9456394912634990  0.4975300531330654
  0.1676136823227489  0.8348534030656523  0.4977368874540217
  0.2233885365208137  0.9462587547351573  0.4976016743611959
  0.3335772269725895  0.8345276001270028  0.4984681602874859
  0.3898530419624014  0.9455770719418055  0.4978044915117594
  0.5000732416756398  0.8322628013954199  0.5000218026174972
  0.5559266283940131  0.9434215140832374  0.4983521732677198
  0.6647880933635537  0.8306215681662044  0.5025888112945445
  0.7199480074489897  0.9413776054531653  0.4994700048866219
  0.8326485977637702  0.8315968904350908  0.5000220607109006
  0.8877311383276374  0.9430110893461827  0.4983945728394338
  0.5280278994446210  0.5556693768245453  0.5552400990519556
 
  0.00000000E+00  0.00000000E+00  0.00000000E+00
  0.00000000E+00  0.00000000E+00  0.00000000E+00
  0.00000000E+00  0.00000000E+00  0.00000000E+00
  0.00000000E+00  0.00000000E+00  0.00000000E+00
  0.00000000E+00  0.00000000E+00  0.00000000E+00
  0.00000000E+00  0.00000000E+00  0.00000000E+00
  0.00000000E+00  0.00000000E+00  0.00000000E+00
  0.00000000E+00  0.00000000E+00  0.00000000E+00
  0.00000000E+00  0.00000000E+00  0.00000000E+00
  0.00000000E+00  0.00000000E+00  0.00000000E+00
  0.00000000E+00  0.00000000E+00  0.00000000E+00
  0.00000000E+00  0.00000000E+00  0.00000000E+00
  0.00000000E+00  0.00000000E+00  0.00000000E+00
  0.00000000E+00  0.00000000E+00  0.00000000E+00
  0.00000000E+00  0.00000000E+00  0.00000000E+00
  0.00000000E+00  0.00000000E+00  0.00000000E+00
  0.00000000E+00  0.00000000E+00  0.00000000E+00
  0.00000000E+00  0.00000000E+00  0.00000000E+00
  0.00000000E+00  0.00000000E+00  0.00000000E+00
  0.00000000E+00  0.00000000E+00  0.00000000E+00
  0.00000000E+00  0.00000000E+00  0.00000000E+00
  0.00000000E+00  0.00000000E+00  0.00000000E+00
  0.00000000E+00  0.00000000E+00  0.00000000E+00
  0.00000000E+00  0.00000000E+00  0.00000000E+00
  0.00000000E+00  0.00000000E+00  0.00000000E+00
  0.00000000E+00  0.00000000E+00  0.00000000E+00
  0.00000000E+00  0.00000000E+00  0.00000000E+00
  0.00000000E+00  0.00000000E+00  0.00000000E+00
  0.00000000E+00  0.00000000E+00  0.00000000E+00
  0.00000000E+00  0.00000000E+00  0.00000000E+00
  0.00000000E+00  0.00000000E+00  0.00000000E+00
  0.00000000E+00  0.00000000E+00  0.00000000E+00
  0.00000000E+00  0.00000000E+00  0.00000000E+00
  0.00000000E+00  0.00000000E+00  0.00000000E+00
  0.00000000E+00  0.00000000E+00  0.00000000E+00
  0.00000000E+00  0.00000000E+00  0.00000000E+00
  0.00000000E+00  0.00000000E+00  0.00000000E+00
  0.00000000E+00  0.00000000E+00  0.00000000E+00
  0.00000000E+00  0.00000000E+00  0.00000000E+00
  0.00000000E+00  0.00000000E+00  0.00000000E+00
  0.00000000E+00  0.00000000E+00  0.00000000E+00
  0.00000000E+00  0.00000000E+00  0.00000000E+00
  0.00000000E+00  0.00000000E+00  0.00000000E+00
  0.00000000E+00  0.00000000E+00  0.00000000E+00
  0.00000000E+00  0.00000000E+00  0.00000000E+00
  0.00000000E+00  0.00000000E+00  0.00000000E+00
  0.00000000E+00  0.00000000E+00  0.00000000E+00
  0.00000000E+00  0.00000000E+00  0.00000000E+00
  0.00000000E+00  0.00000000E+00  0.00000000E+00
  0.00000000E+00  0.00000000E+00  0.00000000E+00
  0.00000000E+00  0.00000000E+00  0.00000000E+00
  0.00000000E+00  0.00000000E+00  0.00000000E+00
  0.00000000E+00  0.00000000E+00  0.00000000E+00
  0.00000000E+00  0.00000000E+00  0.00000000E+00
  0.00000000E+00  0.00000000E+00  0.00000000E+00
  0.00000000E+00  0.00000000E+00  0.00000000E+00
  0.00000000E+00  0.00000000E+00  0.00000000E+00
  0.00000000E+00  0.00000000E+00  0.00000000E+00
  0.00000000E+00  0.00000000E+00  0.00000000E+00
  0.00000000E+00  0.00000000E+00  0.00000000E+00
  0.00000000E+00  0.00000000E+00  0.00000000E+00
  0.00000000E+00  0.00000000E+00  0.00000000E+00
  0.00000000E+00  0.00000000E+00  0.00000000E+00
  0.00000000E+00  0.00000000E+00  0.00000000E+00
  0.00000000E+00  0.00000000E+00  0.00000000E+00
  0.00000000E+00  0.00000000E+00  0.00000000E+00
  0.00000000E+00  0.00000000E+00  0.00000000E+00
  0.00000000E+00  0.00000000E+00  0.00000000E+00
  0.00000000E+00  0.00000000E+00  0.00000000E+00
  0.00000000E+00  0.00000000E+00  0.00000000E+00
  0.00000000E+00  0.00000000E+00  0.00000000E+00
