Fe Pd  N  O  H                          
1.0
+20.9762001038  +0.0000000000  +0.0000000000 
 +4.7673027783 +13.9022194141  +0.0000000000 
 +0.0000000000  +0.0000000000 +24.8032367687 
Fe Pd N O H
 8 5 1 1 1
Selective
Direct
 +0.3291542977  +0.7340080390  +0.4937230915  F F F
 +0.2848483406  +0.3692303357  +0.4537248733  F F F
 +0.0091366555  +0.9359926804  +0.5925672498  T T T
 +0.1633240226  +0.4383627847  +0.5063080616  F F F
 +0.2408453479  +0.9029589501  +0.4832133252  F F F
 +0.3871268394  +0.3129592900  +0.3978375260  F F F
 +0.0870393153  +0.9753381600  +0.5339987088  T T T
 +0.4034998913  +0.3580339371  +0.4877955816  F F F
 +0.2914455173  +0.4757183921  +0.3748113316  F F F
 +0.9789918184  +0.1237672726  +0.5408006065  T T T
 +0.4142663547  +0.4776571512  +0.4113564638  F F F
 +0.1000475116  +0.1620039627  +0.5615298200  T T T
 +0.3031324783  +0.5325412022  +0.4782625414  F F F
 +0.4099924696  +0.6135933584  +0.6823676608  T T T
 +0.3790242360  +0.6913709187  +0.7139255823  T T T
 +0.3901902771  +0.6685342145  +0.7511820421  T T T
