POSCAR-clean                            
   1.00000000000000     
    14.9005570072320008   -0.0604177924913694    0.0000000000000000
    -7.4502785035659249   12.7875044807483356    0.0000000000000000
     0.0000000000000000    0.0000000000000000   15.0000000000000000
   C    N    C    Cr
    52     1    17     1
Direct
  0.9996131065533567  0.9996744685561182  0.4979248360763599
  0.0557106915142327  0.1113316666196525  0.4980566040521354
  0.1677305134954801  0.0024058961466818  0.4973800789628974
  0.2237397924976871  0.1140967403338539  0.4982436883951968
  0.3341128020778394  0.0026079965688163  0.4975979703413849
  0.3903471794051536  0.1139294102566990  0.4982664303161652
  0.4997694344681629  0.0001272118272509  0.4972358286492494
  0.5559072142422267  0.1111505609555668  0.4968885985824807
  0.6653432761987101  0.9971040763971961  0.4986356619882369
  0.7216695236091795  0.1086364918385672  0.4976445328447273
  0.8312825425018215  0.9966073339131266  0.4986257783108619
  0.8876198589248884  0.1084000646037986  0.4976168858649320
  0.9992562905631428  0.1653659865644561  0.4977997562581154
  0.0550792875986249  0.2770164696672955  0.4985659426597095
  0.1676627778579652  0.1686050471987311  0.4988232721466698
  0.2238076136108897  0.2805312123668688  0.5001360156982607
  0.3357626928680187  0.1710616845367812  0.4997032734121347
  0.3920543472808088  0.2822808240613424  0.5039272253161632
  0.5012034074065368  0.1676793516296637  0.4976976349537536
  0.5576959416935955  0.2789162855727241  0.5003412185831008
  0.6669180946135296  0.1648422114339441  0.4971841424267559
  0.7232174146231390  0.2760223944804971  0.4975487407546851
  0.8327971307109822  0.1643460270230366  0.4976079898078715
  0.8887356817760997  0.2757986515720479  0.4977399255628916
  0.9997560740731831  0.3321495069683164  0.4983680574342245
  0.0549261425130355  0.4438541943624293  0.4989081581968486
  0.1665849653924012  0.3340743226980327  0.5000977443330418
  0.2202886493459026  0.4454049785413196  0.5016382715184574
  0.3363402977707250  0.3390132072531099  0.5022158508136345
  0.3882422948188388  0.4502203293679568  0.5039678627445477
  0.5043045622816520  0.3367884456900538  0.5077605390769913
  0.5633564696807346  0.4464968889433992  0.5192992606414776
  0.6686002123534336  0.3319269263330503  0.4992367997163069
  0.7258537230653423  0.4428413322103007  0.5002771448234584
  0.8340318177182683  0.3316078009557018  0.4976164883588468
  0.8901970500537235  0.4433812017788614  0.4976900925334388
  0.0005884957561728  0.4998438349662580  0.4982320117476755
  0.0557540066786645  0.6113295324210489  0.4982712481803637
  0.1650537435895724  0.5003402557137780  0.5002568443075472
  0.2199944422555877  0.6118166543568413  0.4993737608767738
  0.3308977090576823  0.5018753777202778  0.5037725364562977
  0.3857611905451991  0.6153067157446350  0.5060431794605792
  0.6717757088885004  0.4975857840103104  0.5075871623315366
  0.7273236611237868  0.6103835133437945  0.5042624601292782
  0.8362435335361573  0.4991833629897584  0.4982858580490713
  0.8914611306000761  0.6107834624660422  0.4990741716685944
  0.0014140069031679  0.6671960364175897  0.4983921381483074
  0.0561924206454512  0.7789332144854394  0.4980188160016680
  0.1661044195864937  0.6677279346051600  0.4982793910327459
  0.2218367117748977  0.7793622895926118  0.4979994924156665
  0.3303962109004172  0.6687399231917827  0.5008833339660844
  0.3871149700552109  0.7795439718905800  0.4999853284758710
  0.4912211527226336  0.6668023740525620  0.5138399729726306
  0.5497978013566103  0.7735027802563939  0.5062089092804483
  0.6688169757082897  0.6606736354447135  0.5058544016750390
  0.7189666275756671  0.7712939739134367  0.5026657317011889
  0.8369279635220378  0.6665694060500155  0.5004494708053029
  0.8897214534738215  0.7775832054242132  0.4993414532454789
  0.0009344117720274  0.8342603608266478  0.4980125520800023
  0.0562654080569685  0.9456456454896247  0.4975355972307896
  0.1670753002818838  0.8352724286127848  0.4977299214035381
  0.2228848286389002  0.9467356867360367  0.4975442639207088
  0.3325261179462939  0.8353040541034155  0.4982393098727427
  0.3888811481339803  0.9464478596615788  0.4975779714145109
  0.4977610828027969  0.8325487526071643  0.5006649283534248
  0.5546422790352866  0.9437019064396642  0.4982926408171163
  0.6623928002981339  0.8272084179082513  0.5036607768986213
  0.7189902472201766  0.9391854622553084  0.5001102408057215
  0.8318406345747038  0.8305210476834556  0.5001200195530585
  0.8876073376957400  0.9423436426316660  0.4988792134510743
  0.5275353532446260  0.5553701988894786  0.5489465681278103
 
  0.00000000E+00  0.00000000E+00  0.00000000E+00
  0.00000000E+00  0.00000000E+00  0.00000000E+00
  0.00000000E+00  0.00000000E+00  0.00000000E+00
  0.00000000E+00  0.00000000E+00  0.00000000E+00
  0.00000000E+00  0.00000000E+00  0.00000000E+00
  0.00000000E+00  0.00000000E+00  0.00000000E+00
  0.00000000E+00  0.00000000E+00  0.00000000E+00
  0.00000000E+00  0.00000000E+00  0.00000000E+00
  0.00000000E+00  0.00000000E+00  0.00000000E+00
  0.00000000E+00  0.00000000E+00  0.00000000E+00
  0.00000000E+00  0.00000000E+00  0.00000000E+00
  0.00000000E+00  0.00000000E+00  0.00000000E+00
  0.00000000E+00  0.00000000E+00  0.00000000E+00
  0.00000000E+00  0.00000000E+00  0.00000000E+00
  0.00000000E+00  0.00000000E+00  0.00000000E+00
  0.00000000E+00  0.00000000E+00  0.00000000E+00
  0.00000000E+00  0.00000000E+00  0.00000000E+00
  0.00000000E+00  0.00000000E+00  0.00000000E+00
  0.00000000E+00  0.00000000E+00  0.00000000E+00
  0.00000000E+00  0.00000000E+00  0.00000000E+00
  0.00000000E+00  0.00000000E+00  0.00000000E+00
  0.00000000E+00  0.00000000E+00  0.00000000E+00
  0.00000000E+00  0.00000000E+00  0.00000000E+00
  0.00000000E+00  0.00000000E+00  0.00000000E+00
  0.00000000E+00  0.00000000E+00  0.00000000E+00
  0.00000000E+00  0.00000000E+00  0.00000000E+00
  0.00000000E+00  0.00000000E+00  0.00000000E+00
  0.00000000E+00  0.00000000E+00  0.00000000E+00
  0.00000000E+00  0.00000000E+00  0.00000000E+00
  0.00000000E+00  0.00000000E+00  0.00000000E+00
  0.00000000E+00  0.00000000E+00  0.00000000E+00
  0.00000000E+00  0.00000000E+00  0.00000000E+00
  0.00000000E+00  0.00000000E+00  0.00000000E+00
  0.00000000E+00  0.00000000E+00  0.00000000E+00
  0.00000000E+00  0.00000000E+00  0.00000000E+00
  0.00000000E+00  0.00000000E+00  0.00000000E+00
  0.00000000E+00  0.00000000E+00  0.00000000E+00
  0.00000000E+00  0.00000000E+00  0.00000000E+00
  0.00000000E+00  0.00000000E+00  0.00000000E+00
  0.00000000E+00  0.00000000E+00  0.00000000E+00
  0.00000000E+00  0.00000000E+00  0.00000000E+00
  0.00000000E+00  0.00000000E+00  0.00000000E+00
  0.00000000E+00  0.00000000E+00  0.00000000E+00
  0.00000000E+00  0.00000000E+00  0.00000000E+00
  0.00000000E+00  0.00000000E+00  0.00000000E+00
  0.00000000E+00  0.00000000E+00  0.00000000E+00
  0.00000000E+00  0.00000000E+00  0.00000000E+00
  0.00000000E+00  0.00000000E+00  0.00000000E+00
  0.00000000E+00  0.00000000E+00  0.00000000E+00
  0.00000000E+00  0.00000000E+00  0.00000000E+00
  0.00000000E+00  0.00000000E+00  0.00000000E+00
  0.00000000E+00  0.00000000E+00  0.00000000E+00
  0.00000000E+00  0.00000000E+00  0.00000000E+00
  0.00000000E+00  0.00000000E+00  0.00000000E+00
  0.00000000E+00  0.00000000E+00  0.00000000E+00
  0.00000000E+00  0.00000000E+00  0.00000000E+00
  0.00000000E+00  0.00000000E+00  0.00000000E+00
  0.00000000E+00  0.00000000E+00  0.00000000E+00
  0.00000000E+00  0.00000000E+00  0.00000000E+00
  0.00000000E+00  0.00000000E+00  0.00000000E+00
  0.00000000E+00  0.00000000E+00  0.00000000E+00
  0.00000000E+00  0.00000000E+00  0.00000000E+00
  0.00000000E+00  0.00000000E+00  0.00000000E+00
  0.00000000E+00  0.00000000E+00  0.00000000E+00
  0.00000000E+00  0.00000000E+00  0.00000000E+00
  0.00000000E+00  0.00000000E+00  0.00000000E+00
  0.00000000E+00  0.00000000E+00  0.00000000E+00
  0.00000000E+00  0.00000000E+00  0.00000000E+00
  0.00000000E+00  0.00000000E+00  0.00000000E+00
  0.00000000E+00  0.00000000E+00  0.00000000E+00
  0.00000000E+00  0.00000000E+00  0.00000000E+00
