POSCAR-c3n4                             
   1.2000000000000000     
    13.8434242346000005   -0.1907404740000000    0.0000000000000000
    -6.9217121174000003   11.6951909939000007    0.0000000000000000
     0.0000000000000000    0.0000000000000000   15.0000000000000000
   C    N    Ge   C    O 
    24    32     1     1     1
Direct
  0.0672685503067349  0.1508406067250074  0.4854071261057210
  0.3224606049967527  0.4694492605671891  0.4688926334213486
  0.1099130780993713  0.4096126264121913  0.4516778016015825
  0.5186896689201861  0.0791983301859786  0.4967589566724823
  0.4496692129752208  0.4557980291960583  0.4735450964638694
  0.0491086420631682  0.0016334394237332  0.4902042820061361
  0.0735941329422767  0.6687548174781448  0.5026696951281733
  0.3767885200086836  0.9424529390585729  0.4946945963136707
  0.0098319332317402  0.8559459902537023  0.5133104462662158
  0.4601798009478146  0.6113522764663568  0.4928928118344588
  0.4964423942044222  0.9180656184879392  0.4964931105283385
  0.0922300254539530  0.5373763645063249  0.4824308350569249
  0.6713420245841906  0.2082107161716285  0.4982481881991240
  0.8141830178318764  0.3591029376608876  0.4752943636455751
  0.5869192779085043  0.4626685673042160  0.4813804123095537
  0.9136105035084771  0.0220991123828657  0.4866120043605348
  0.9587627656933899  0.3794831004801615  0.4528054635109243
  0.6531118408785149  0.0598008411763694  0.5182078498054674
  0.6068374448556075  0.7475623946606339  0.4987877314133610
  0.7675169131275039  0.8908691954877895  0.5095526394609193
  0.6266101758850082  0.9088496572902226  0.5107316504515710
  0.9387674214695900  0.5160588569997827  0.4867775224770082
  0.8878896746878421  0.8670649750339963  0.5268235659780488
  0.6019237225088784  0.6073196765667569  0.4796301215620627
  0.1269881375397500  0.2408654822591109  0.4967185864787357
  0.1061434510991981  0.0911785100901069  0.4803790048490904
  0.4220880322880163  0.0347695035845019  0.4944017959352683
  0.4945747400933147  0.4085939858472644  0.4734096665420419
  0.3553400931207906  0.4136738187549814  0.4652353913016560
  0.5757963406485165  0.1717126518737169  0.4928246675175512
  0.0770867338336176  0.9322960427249757  0.4901695171066314
 -0.0502024155053772 -0.0395827177323544  0.5023614899881942
  0.1115516727323645  0.7598489093012039  0.5148636411331220
  0.1341922620908474  0.6298121183790344  0.4956639909352399
  0.3630948368336819  0.5626271906719660  0.4835455684635991
  0.5358203624581853  0.8656171916680033  0.4911418506090831
  0.4014169758809793  0.8774642182309846  0.4929487020907311
  0.5121003960301425  0.7024512821805756  0.5105120945461882
  0.1518061615621233  0.5016367999180762  0.4770837767114038
  0.9984621031565661  0.4762420360559134  0.4762845762580794
  0.7228817944620365  0.3023353682811444  0.4884575103819472
  0.7094749647861219  0.1533170151174200  0.5165348188548239
  0.8176546406493095  0.9759951671789892  0.4795826921044025
  0.0233956733638698  0.3525612557314195  0.4365348932436812
  0.8688865773571064  0.3231798102733258  0.4476013934037908
 -0.0294454351019524  0.1135579056669665  0.4780288485493707
  0.6841673598649376 -0.0011738276628427  0.5312206414800827
  0.5545564809429621  0.0172965342384885  0.5042461893727255
  0.6651467922343662  0.8470611295564029  0.5093081857215469
  0.6502768980371310  0.7019806396051330  0.4769968671142207
  0.8471723720360317  0.4533422046294299  0.4874613938523353
 -0.0736289281276838  0.8090275620918336  0.5359346083960167
  0.7989275319567323  0.8359320812667782  0.5401549884470270
 -0.0223477184252095  0.6090023471515162  0.4964925783709199
  0.6442088908244387  0.5557547320003662  0.4807337370725470
  0.5020865306408098  0.5565120647388541  0.4824249458316247
  0.2657690554818563  0.6211898186137438  0.5221278316970446
  0.2527355898642187  0.5617203852240754  0.7059769960340279
  0.2582909797934874  0.5579529641576377  0.7688076549055342

  0.00000000E+00  0.00000000E+00  0.00000000E+00
  0.00000000E+00  0.00000000E+00  0.00000000E+00
  0.00000000E+00  0.00000000E+00  0.00000000E+00
  0.00000000E+00  0.00000000E+00  0.00000000E+00
  0.00000000E+00  0.00000000E+00  0.00000000E+00
  0.00000000E+00  0.00000000E+00  0.00000000E+00
  0.00000000E+00  0.00000000E+00  0.00000000E+00
  0.00000000E+00  0.00000000E+00  0.00000000E+00
  0.00000000E+00  0.00000000E+00  0.00000000E+00
  0.00000000E+00  0.00000000E+00  0.00000000E+00
  0.00000000E+00  0.00000000E+00  0.00000000E+00
  0.00000000E+00  0.00000000E+00  0.00000000E+00
  0.00000000E+00  0.00000000E+00  0.00000000E+00
  0.00000000E+00  0.00000000E+00  0.00000000E+00
  0.00000000E+00  0.00000000E+00  0.00000000E+00
  0.00000000E+00  0.00000000E+00  0.00000000E+00
  0.00000000E+00  0.00000000E+00  0.00000000E+00
  0.00000000E+00  0.00000000E+00  0.00000000E+00
  0.00000000E+00  0.00000000E+00  0.00000000E+00
  0.00000000E+00  0.00000000E+00  0.00000000E+00
  0.00000000E+00  0.00000000E+00  0.00000000E+00
  0.00000000E+00  0.00000000E+00  0.00000000E+00
  0.00000000E+00  0.00000000E+00  0.00000000E+00
  0.00000000E+00  0.00000000E+00  0.00000000E+00
  0.00000000E+00  0.00000000E+00  0.00000000E+00
  0.00000000E+00  0.00000000E+00  0.00000000E+00
  0.00000000E+00  0.00000000E+00  0.00000000E+00
  0.00000000E+00  0.00000000E+00  0.00000000E+00
  0.00000000E+00  0.00000000E+00  0.00000000E+00
  0.00000000E+00  0.00000000E+00  0.00000000E+00
  0.00000000E+00  0.00000000E+00  0.00000000E+00
  0.00000000E+00  0.00000000E+00  0.00000000E+00
  0.00000000E+00  0.00000000E+00  0.00000000E+00
  0.00000000E+00  0.00000000E+00  0.00000000E+00
  0.00000000E+00  0.00000000E+00  0.00000000E+00
  0.00000000E+00  0.00000000E+00  0.00000000E+00
  0.00000000E+00  0.00000000E+00  0.00000000E+00
  0.00000000E+00  0.00000000E+00  0.00000000E+00
  0.00000000E+00  0.00000000E+00  0.00000000E+00
  0.00000000E+00  0.00000000E+00  0.00000000E+00
  0.00000000E+00  0.00000000E+00  0.00000000E+00
  0.00000000E+00  0.00000000E+00  0.00000000E+00
  0.00000000E+00  0.00000000E+00  0.00000000E+00
  0.00000000E+00  0.00000000E+00  0.00000000E+00
  0.00000000E+00  0.00000000E+00  0.00000000E+00
  0.00000000E+00  0.00000000E+00  0.00000000E+00
  0.00000000E+00  0.00000000E+00  0.00000000E+00
  0.00000000E+00  0.00000000E+00  0.00000000E+00
  0.00000000E+00  0.00000000E+00  0.00000000E+00
  0.00000000E+00  0.00000000E+00  0.00000000E+00
  0.00000000E+00  0.00000000E+00  0.00000000E+00
  0.00000000E+00  0.00000000E+00  0.00000000E+00
  0.00000000E+00  0.00000000E+00  0.00000000E+00
  0.00000000E+00  0.00000000E+00  0.00000000E+00
  0.00000000E+00  0.00000000E+00  0.00000000E+00
  0.00000000E+00  0.00000000E+00  0.00000000E+00
  0.00000000E+00  0.00000000E+00  0.00000000E+00
  0.00000000E+00  0.00000000E+00  0.00000000E+00
  0.00000000E+00  0.00000000E+00  0.00000000E+00
