POSCAR-c3n4                             
   1.2000000000000000     
    13.8434242346000005   -0.1907404740000000    0.0000000000000000
    -6.9217121174000003   11.6951909939000007    0.0000000000000000
     0.0000000000000000    0.0000000000000000   15.0000000000000000
   C    N    Ge   C    O 
    24    32     1     1     1
Direct
  0.0482720301577156  0.1179700852567738  0.4739007854695447
  0.2743434837647349  0.5129552131344037  0.4870358226003159
  0.1815053433252473  0.5073868594624190  0.4878387399952396
  0.5569040067152611  0.0773117532520901  0.4790033657409009
  0.3708080725620352  0.4580656278082356  0.4555025848655953
  0.0426312993420978 -0.0221214911250506  0.4999790277287945
  0.0474179437277662  0.6943655714324370  0.5180302253814936
  0.4089257566535931  0.9494138052278244  0.4640159938790557
  0.0232431730344773  0.8290807885316315  0.5207200354728422
  0.4360673278550590  0.6159218179633218  0.5129605443045965
  0.5191452226283316  0.9108703387985482  0.4774200636156720
  0.1157472665189097  0.6031407663366366  0.5104959858224665
  0.7132201422738479  0.1966524160188072  0.4982387094274679
  0.8588031926741928  0.3641423020477159  0.4838467404710908
  0.4767538089466237  0.4177139638355635  0.4284176323238974
  0.9015331559220394 -0.0157330495461494  0.4747888530180843
  0.0204237031272340  0.4327180553963733  0.4765820443085245
  0.6732151666041702  0.0402542689393649  0.5210026890851905
  0.5942582715352875  0.7195362677180490  0.5124464783830316
  0.7627449576555203  0.8523218085855486  0.5043328116203009
  0.6341663871608532  0.8849011118325057  0.5121009207890982
  0.9487792931405252  0.5306217164665858  0.4959376474176130
  0.8885404880988342  0.8364802188639736  0.5214566622102283
  0.5429428922698815  0.5693159270088507  0.4688014572135585
  0.1026356023661367  0.2157696834591948  0.4710822754730454
  0.0956235521251714  0.0739245750799893  0.4903115583124215
  0.4624556455934145  0.0410793771373430  0.4664738878648076
  0.3869993084689713  0.3922773325151973  0.4286485032098236
  0.2831243320714323  0.4429937482427867  0.4608210668574903
  0.6203968877189975  0.1683125275036598  0.4806740931752442
  0.0816265365696804  0.9264502945384401  0.5110733164664688
  0.9435485359790594  0.9330993892622222  0.4985734631145006
  0.0725860404103411  0.7853739788441888  0.5224957442274422
  0.1266265440703267  0.6850093734767339  0.5272442174804675
  0.3464489921475820  0.5988882291067567  0.5141505322219682
  0.5513562511668156  0.8520519829508293  0.4771448781670823
  0.4265307281302811  0.8787306578845193  0.4657514029263246
  0.5076208302645741  0.6954222451812236  0.5395163267550170
  0.1938929745503092  0.5942993502062315  0.5085834945535274
  0.0301838821309979  0.5219470461779805  0.4935728920253682
  0.7726283254621209  0.2890830808231889  0.4899714143281161
  0.7362097466707569  0.1325281658981130  0.5268470979064744
  0.8073656316671659  0.9360500862898291  0.4686058462448589
  0.1018234851743520  0.4292098854411872  0.4713332692180805
  0.9371737011695154  0.3557052461889496  0.4681858402593677
  0.9542817977854819  0.0775581410536834  0.4608392733851333
  0.6908342151074260  0.9705060041436082  0.5410112996070885
  0.5818008554393131  0.0079044989466129  0.4913396898741620
  0.6631952758167552  0.8160591691562579  0.5150409343995207
  0.6139749563561347  0.6578238372461299  0.4809206156798423
  0.8649438900286206  0.4506503216341093  0.4911510885955270
  0.9279569296092126  0.7848987350067809  0.5323333473051769
  0.7952958862157258  0.8004625524078134  0.5328486148387414
  0.9605629082245987  0.6174408039321871  0.5031756783398934
  0.5540365600473843  0.4974597590363944  0.4449010196953235
  0.4487402470011598  0.5471352718287454  0.4783043679895057
  0.3157419633305442  0.7048377231304526  0.5456564055829571
  0.2600088346280345  0.5843780861654809  0.6786644613401916
  0.2514970424003720  0.5567152085019699  0.7378962613077853

  0.00000000E+00  0.00000000E+00  0.00000000E+00
  0.00000000E+00  0.00000000E+00  0.00000000E+00
  0.00000000E+00  0.00000000E+00  0.00000000E+00
  0.00000000E+00  0.00000000E+00  0.00000000E+00
  0.00000000E+00  0.00000000E+00  0.00000000E+00
  0.00000000E+00  0.00000000E+00  0.00000000E+00
  0.00000000E+00  0.00000000E+00  0.00000000E+00
  0.00000000E+00  0.00000000E+00  0.00000000E+00
  0.00000000E+00  0.00000000E+00  0.00000000E+00
  0.00000000E+00  0.00000000E+00  0.00000000E+00
  0.00000000E+00  0.00000000E+00  0.00000000E+00
  0.00000000E+00  0.00000000E+00  0.00000000E+00
  0.00000000E+00  0.00000000E+00  0.00000000E+00
  0.00000000E+00  0.00000000E+00  0.00000000E+00
  0.00000000E+00  0.00000000E+00  0.00000000E+00
  0.00000000E+00  0.00000000E+00  0.00000000E+00
  0.00000000E+00  0.00000000E+00  0.00000000E+00
  0.00000000E+00  0.00000000E+00  0.00000000E+00
  0.00000000E+00  0.00000000E+00  0.00000000E+00
  0.00000000E+00  0.00000000E+00  0.00000000E+00
  0.00000000E+00  0.00000000E+00  0.00000000E+00
  0.00000000E+00  0.00000000E+00  0.00000000E+00
  0.00000000E+00  0.00000000E+00  0.00000000E+00
  0.00000000E+00  0.00000000E+00  0.00000000E+00
  0.00000000E+00  0.00000000E+00  0.00000000E+00
  0.00000000E+00  0.00000000E+00  0.00000000E+00
  0.00000000E+00  0.00000000E+00  0.00000000E+00
  0.00000000E+00  0.00000000E+00  0.00000000E+00
  0.00000000E+00  0.00000000E+00  0.00000000E+00
  0.00000000E+00  0.00000000E+00  0.00000000E+00
  0.00000000E+00  0.00000000E+00  0.00000000E+00
  0.00000000E+00  0.00000000E+00  0.00000000E+00
  0.00000000E+00  0.00000000E+00  0.00000000E+00
  0.00000000E+00  0.00000000E+00  0.00000000E+00
  0.00000000E+00  0.00000000E+00  0.00000000E+00
  0.00000000E+00  0.00000000E+00  0.00000000E+00
  0.00000000E+00  0.00000000E+00  0.00000000E+00
  0.00000000E+00  0.00000000E+00  0.00000000E+00
  0.00000000E+00  0.00000000E+00  0.00000000E+00
  0.00000000E+00  0.00000000E+00  0.00000000E+00
  0.00000000E+00  0.00000000E+00  0.00000000E+00
  0.00000000E+00  0.00000000E+00  0.00000000E+00
  0.00000000E+00  0.00000000E+00  0.00000000E+00
  0.00000000E+00  0.00000000E+00  0.00000000E+00
  0.00000000E+00  0.00000000E+00  0.00000000E+00
  0.00000000E+00  0.00000000E+00  0.00000000E+00
  0.00000000E+00  0.00000000E+00  0.00000000E+00
  0.00000000E+00  0.00000000E+00  0.00000000E+00
  0.00000000E+00  0.00000000E+00  0.00000000E+00
  0.00000000E+00  0.00000000E+00  0.00000000E+00
  0.00000000E+00  0.00000000E+00  0.00000000E+00
  0.00000000E+00  0.00000000E+00  0.00000000E+00
  0.00000000E+00  0.00000000E+00  0.00000000E+00
  0.00000000E+00  0.00000000E+00  0.00000000E+00
  0.00000000E+00  0.00000000E+00  0.00000000E+00
  0.00000000E+00  0.00000000E+00  0.00000000E+00
  0.00000000E+00  0.00000000E+00  0.00000000E+00
  0.00000000E+00  0.00000000E+00  0.00000000E+00
  0.00000000E+00  0.00000000E+00  0.00000000E+00
