POSCAR-clean                            
   1.0000000000000000     
    14.8601789036999996   -0.0031452181000000    0.0000000000000000
    -7.4300894517999998   12.7501479922000005    0.0000000000000000
     0.0000000000000000    0.0000000000000000   15.0000000000000000
   C    N    C    Cr   C    O 
    32     1    37     1     1     1
Direct
  0.9990618390152237  0.9995468798661811  0.4916112775463138
  0.0548958975279077  0.1110219040604681  0.4917001726263595
  0.1674127614636465  0.0019097115495090  0.4901569608475060
  0.2231885882674056  0.1132420201555704  0.4912942404095675
  0.3342859989899115  0.0026462858089741  0.4909011762695764
  0.3902936008301016  0.1142980817062492  0.4934812945977433
  0.5000710296603739  0.0014621065204951  0.4907580539108087
  0.5555231232206364  0.1125837239288553  0.4926826651917089
  0.6659583268981706  0.9993685434872429  0.4900739955662966
  0.7217005429892642  0.1109806268744033  0.4908124155679590
  0.8321536572041032  0.9985528412242545  0.4925252294517743
  0.8878043956162189  0.1099860707407303  0.4915047644779458
  0.9989349707562200  0.1660072073526340  0.4918847274703235
  0.0544109844042954  0.2774471844053384  0.4925055127698076
  0.1664799374604973  0.1674442794327727  0.4916158575736594
  0.2221515245179913  0.2787317677987514  0.4916723889020443
  0.3348947511304885  0.1698745135715594  0.4939245229786300
  0.3911481696607589  0.2810655316912722  0.4975045321332443
  0.5016152234590903  0.1701253236813831  0.4947392633517510
  0.5575405877045420  0.2817911129567073  0.4987335864997866
  0.6662347956646592  0.1673785812629164  0.4925432916151479
  0.7217817394505894  0.2783534194326506  0.4943059156000223
  0.8324550075464235  0.1659038769852760  0.4910711235333746
  0.8875636397278045  0.2770715871034068  0.4915988087973585
  0.9988505824586135  0.3329385370007556  0.4922890027278053
  0.0546974808266467  0.4444175924731976  0.4925136252085789
  0.1654552036950798  0.3332399864852653  0.4931199313092323
  0.2202220615437969  0.4445381876415810  0.4945732485980160
  0.3341527907211733  0.3354430507704745  0.4929145282123854
  0.3870909193808294  0.4455770520687080  0.4935346930472577
  0.5034727751274473  0.3397438179201703  0.5041224793131309
  0.5595423232548532  0.4516784908764315  0.5159096706019372
  0.6673156563011264  0.3337867793039541  0.4982056184503526
  0.7232172826072103  0.4439058716088690  0.4998048458848803
  0.8323070207989123  0.3332404989738569  0.4925352517876321
  0.8893996648469763  0.4447322587821969  0.4923178664608870
 -0.0001539830400767  0.5003356115225467  0.4915491945544065
  0.0555242561677042  0.6117660855285451  0.4909988289325847
  0.1652659390753318  0.5003479571845780  0.4940102784899437
  0.2209392639601550  0.6119362744434930  0.4931922285661573
  0.3306667230114399  0.4998290783347493  0.4914923047941799
  0.3871898636116810  0.6128508636160891  0.4891462986010245
  0.6699478000727096  0.4992909068664971  0.5078980145489687
  0.7259939149245920  0.6111122605922119  0.5067138630141346
  0.8341482288006780  0.4995093068728939  0.4947768151674573
  0.8898168193300486  0.6109961575423951  0.4942075519238724
  0.0005571451327754  0.6672746288932545  0.4911337558704284
  0.0559909478295386  0.7788018169682089  0.4904337146043558
  0.1663107016071689  0.6677688271563427  0.4911745089007231
  0.2222181022340327  0.7792076565127712  0.4899609585712522
  0.3316098524393922  0.6679321551364014  0.4921186207906212
  0.3882831305491632  0.7790680842820221  0.4895795030610802
  0.4973044289311622  0.6662874962108347  0.4852727841515602
  0.5540518403339287  0.7762571738082713  0.4879953448884827
  0.6651256931489523  0.6603011990056568  0.5131239603878112
  0.7187335923739249  0.7721048278610990  0.5016527348089584
  0.8352710200956631  0.6669227089488471  0.4982321035192437
  0.8894258921132038  0.7779756447651699  0.4957820508539419
  0.0004313426705412  0.8342449560236856  0.4918248764633409
  0.0560177066486203  0.9454729753473533  0.4908094245097054
  0.1670856824289630  0.8350034149456449  0.4894437324450649
  0.2230141557639470  0.9465191772031388  0.4897626600321883
  0.3332432363056113  0.8350904967509365  0.4897583926083203
  0.3890776662650624  0.9464228231508744  0.4902372654119634
  0.4994651458855233  0.8336076234694411  0.4880028473956102
  0.5551540160992499  0.9449574547764301  0.4894572673853916
  0.6653169973640374  0.8307515646715035  0.4944402720274285
  0.7207088909300016  0.9421400688933084  0.4921200843900653
  0.8311589442365426  0.8307418391236974  0.4967966399175393
  0.8873768089858280  0.9427563865422899  0.4931820284925220
  0.5132698938697884  0.5566311846977885  0.5418457190049738
  0.5165105008067581  0.5185434415409204  0.6623366295671126
  0.5170754046135893  0.5009857883869326  0.7380942020501499

  0.00000000E+00  0.00000000E+00  0.00000000E+00
  0.00000000E+00  0.00000000E+00  0.00000000E+00
  0.00000000E+00  0.00000000E+00  0.00000000E+00
  0.00000000E+00  0.00000000E+00  0.00000000E+00
  0.00000000E+00  0.00000000E+00  0.00000000E+00
  0.00000000E+00  0.00000000E+00  0.00000000E+00
  0.00000000E+00  0.00000000E+00  0.00000000E+00
  0.00000000E+00  0.00000000E+00  0.00000000E+00
  0.00000000E+00  0.00000000E+00  0.00000000E+00
  0.00000000E+00  0.00000000E+00  0.00000000E+00
  0.00000000E+00  0.00000000E+00  0.00000000E+00
  0.00000000E+00  0.00000000E+00  0.00000000E+00
  0.00000000E+00  0.00000000E+00  0.00000000E+00
  0.00000000E+00  0.00000000E+00  0.00000000E+00
  0.00000000E+00  0.00000000E+00  0.00000000E+00
  0.00000000E+00  0.00000000E+00  0.00000000E+00
  0.00000000E+00  0.00000000E+00  0.00000000E+00
  0.00000000E+00  0.00000000E+00  0.00000000E+00
  0.00000000E+00  0.00000000E+00  0.00000000E+00
  0.00000000E+00  0.00000000E+00  0.00000000E+00
  0.00000000E+00  0.00000000E+00  0.00000000E+00
  0.00000000E+00  0.00000000E+00  0.00000000E+00
  0.00000000E+00  0.00000000E+00  0.00000000E+00
  0.00000000E+00  0.00000000E+00  0.00000000E+00
  0.00000000E+00  0.00000000E+00  0.00000000E+00
  0.00000000E+00  0.00000000E+00  0.00000000E+00
  0.00000000E+00  0.00000000E+00  0.00000000E+00
  0.00000000E+00  0.00000000E+00  0.00000000E+00
  0.00000000E+00  0.00000000E+00  0.00000000E+00
  0.00000000E+00  0.00000000E+00  0.00000000E+00
  0.00000000E+00  0.00000000E+00  0.00000000E+00
  0.00000000E+00  0.00000000E+00  0.00000000E+00
  0.00000000E+00  0.00000000E+00  0.00000000E+00
  0.00000000E+00  0.00000000E+00  0.00000000E+00
  0.00000000E+00  0.00000000E+00  0.00000000E+00
  0.00000000E+00  0.00000000E+00  0.00000000E+00
  0.00000000E+00  0.00000000E+00  0.00000000E+00
  0.00000000E+00  0.00000000E+00  0.00000000E+00
  0.00000000E+00  0.00000000E+00  0.00000000E+00
  0.00000000E+00  0.00000000E+00  0.00000000E+00
  0.00000000E+00  0.00000000E+00  0.00000000E+00
  0.00000000E+00  0.00000000E+00  0.00000000E+00
  0.00000000E+00  0.00000000E+00  0.00000000E+00
  0.00000000E+00  0.00000000E+00  0.00000000E+00
  0.00000000E+00  0.00000000E+00  0.00000000E+00
  0.00000000E+00  0.00000000E+00  0.00000000E+00
  0.00000000E+00  0.00000000E+00  0.00000000E+00
  0.00000000E+00  0.00000000E+00  0.00000000E+00
  0.00000000E+00  0.00000000E+00  0.00000000E+00
  0.00000000E+00  0.00000000E+00  0.00000000E+00
  0.00000000E+00  0.00000000E+00  0.00000000E+00
  0.00000000E+00  0.00000000E+00  0.00000000E+00
  0.00000000E+00  0.00000000E+00  0.00000000E+00
  0.00000000E+00  0.00000000E+00  0.00000000E+00
  0.00000000E+00  0.00000000E+00  0.00000000E+00
  0.00000000E+00  0.00000000E+00  0.00000000E+00
  0.00000000E+00  0.00000000E+00  0.00000000E+00
  0.00000000E+00  0.00000000E+00  0.00000000E+00
  0.00000000E+00  0.00000000E+00  0.00000000E+00
  0.00000000E+00  0.00000000E+00  0.00000000E+00
  0.00000000E+00  0.00000000E+00  0.00000000E+00
  0.00000000E+00  0.00000000E+00  0.00000000E+00
  0.00000000E+00  0.00000000E+00  0.00000000E+00
  0.00000000E+00  0.00000000E+00  0.00000000E+00
  0.00000000E+00  0.00000000E+00  0.00000000E+00
  0.00000000E+00  0.00000000E+00  0.00000000E+00
  0.00000000E+00  0.00000000E+00  0.00000000E+00
  0.00000000E+00  0.00000000E+00  0.00000000E+00
  0.00000000E+00  0.00000000E+00  0.00000000E+00
  0.00000000E+00  0.00000000E+00  0.00000000E+00
  0.00000000E+00  0.00000000E+00  0.00000000E+00
  0.00000000E+00  0.00000000E+00  0.00000000E+00
  0.00000000E+00  0.00000000E+00  0.00000000E+00
