POSCAR-clean                            
   1.00000000000000     
    14.8588663936999996    0.0008149544000000    0.0000000000000000
    -7.4294331967999998   12.7557954065000008    0.0000000000000000
     0.0000000000000000    0.0000000000000000   15.0000000000000000
   C    N    C    Cr   C    O 
    65     1     4     1     1     1
Direct
  0.9987490017708601  0.9995824028550431  0.4923687981106885
  0.0547430993367652  0.1110972861455225  0.4915319125276229
  0.1672310692438116  0.0016472023952375  0.4918871774451279
  0.2228573452625842  0.1129938351899625  0.4918655809578494
  0.3344034613427918  0.0022904121252414  0.4920889558917893
  0.3895588723163868  0.1133702774472296  0.4942121137219705
  0.5003159873577507  0.0006186778152852  0.4908438671345755
  0.5557981790322496  0.1118845220529549  0.4929887365360197
  0.6648787655370491  0.9989143295382936  0.4897720446542407
  0.7206911882922775  0.1098631854005186  0.4909667820490962
  0.8315463455218343  0.9989909491144504  0.4923685544969661
  0.8874981790750199  0.1100520786734137  0.4913565742921394
  0.9988206029905345  0.1661030798966982  0.4912952891178274
  0.0545025219175693  0.2774806238061704  0.4913449471298857
  0.1663154885105712  0.1675215597242913  0.4910882475809972
  0.2219436132958683  0.2788325806621419  0.4898530642875992
  0.3344983474753693  0.1696924324988315  0.4941835634943889
  0.3903948951923946  0.2811463116465319  0.4969145403194108
  0.5004335037912746  0.1685616115515731  0.4952827974324962
  0.5563209221991776  0.2804727598274716  0.4993225737096447
  0.6665294635697999  0.1668917068214883  0.4929302074559956
  0.7220780618985646  0.2777272490551592  0.4953935947699969
  0.8320422037798517  0.1653594075955360  0.4913118927037099
  0.8880178561024378  0.2771296833953177  0.4924285364160959
  0.9991481106456678  0.3331428199862002  0.4921363175699694
  0.0547715588456422  0.4447041292011515  0.4924419129232279
  0.1655510553353891  0.3334329139937181  0.4910415402196218
  0.2202527399488103  0.4448036149543964  0.4922435359642867
  0.3339820834166331  0.3359588958897808  0.4909521140925387
  0.3873372733881800  0.4461668856761863  0.4901768440694502
  0.5020600156091014  0.3389459907817118  0.5037659179762960
  0.5592304952067664  0.4507305978780009  0.5139874226653219
  0.6669920799184909  0.3335350135805242  0.4991529133673465
  0.7236526973656487  0.4448072127364743  0.5013633580594890
  0.8332522379819416  0.3331340663776075  0.4943432108486218
  0.8891578850187516  0.4445064688886333  0.4950019096509551
 -0.0001565295749972  0.5003480139218489  0.4932887889825275
  0.0554909681515501  0.6118129231509027  0.4929243747440499
  0.1654941313839753  0.5006972114161128  0.4925509417257128
  0.2212172127956672  0.6123058670695364  0.4918827034718413
  0.3306965258453834  0.5002147777921723  0.4886112660548667
  0.3869224893355407  0.6132523994612082  0.4867058171449919
  0.6695440271460603  0.5002555275488240  0.5080304496490022
  0.7250952563240078  0.6117760166867644  0.5069632344612809
  0.8344585912111746  0.5003397506907922  0.4975931760036621
  0.8900181482068080  0.6116354514303002  0.4969449006049516
  0.0005978262224310  0.6675680221911360  0.4940020182629360
  0.0559267258989881  0.7789740438598526  0.4930871640952666
  0.1662074769418609  0.6676908802145113  0.4916582098429070
  0.2221283422756630  0.7791588576402270  0.4909323027563087
  0.3320818943528525  0.6684446200309077  0.4901484426161918
  0.3888209897992352  0.7800393625124095  0.4884867381420565
  0.4970149611307262  0.6674632499471673  0.4835880963380285
  0.5540328988192366  0.7776245235178173  0.4864082070681091
  0.6641082216228454  0.6610817793002256  0.5119464345902205
  0.7183105114230188  0.7729220771597920  0.5010706812633304
  0.8346522030691109  0.6671328114469265  0.4998064200395571
  0.8890840819511464  0.7783589708115959  0.4970766249648298
  0.0001406417217073  0.8343370420821346  0.4939031520394313
  0.0556252147227210  0.9454430966438331  0.4925130027720323
  0.1668668114938682  0.8348458819769797  0.4916024972353375
  0.2230102476142722  0.9462546884442100  0.4916993957476969
  0.3329037152132486  0.8348030748560937  0.4898516407252008
  0.3896717936156942  0.9459412465772347  0.4906937994342340
  0.4998542965454570  0.8348483447188644  0.4868725922087439
  0.5548730806940274  0.9450290977833806  0.4890654983200178
  0.6653428410252786  0.8311638666529489  0.4935782944427189
  0.7196938779231667  0.9421573765049100  0.4915737021437084
  0.8310755905894761  0.8313725061238412  0.4972017495476724
  0.8869334068698094  0.9430709705373240  0.4935343473664376
  0.5130556448069823  0.5577615753277992  0.5406517613994228
  0.5231890746272473  0.5176357563191366  0.6597476098432735
  0.5284658586974847  0.4962444695212141  0.7335966143215172
 
  0.00000000E+00  0.00000000E+00  0.00000000E+00
  0.00000000E+00  0.00000000E+00  0.00000000E+00
  0.00000000E+00  0.00000000E+00  0.00000000E+00
  0.00000000E+00  0.00000000E+00  0.00000000E+00
  0.00000000E+00  0.00000000E+00  0.00000000E+00
  0.00000000E+00  0.00000000E+00  0.00000000E+00
  0.00000000E+00  0.00000000E+00  0.00000000E+00
  0.00000000E+00  0.00000000E+00  0.00000000E+00
  0.00000000E+00  0.00000000E+00  0.00000000E+00
  0.00000000E+00  0.00000000E+00  0.00000000E+00
  0.00000000E+00  0.00000000E+00  0.00000000E+00
  0.00000000E+00  0.00000000E+00  0.00000000E+00
  0.00000000E+00  0.00000000E+00  0.00000000E+00
  0.00000000E+00  0.00000000E+00  0.00000000E+00
  0.00000000E+00  0.00000000E+00  0.00000000E+00
  0.00000000E+00  0.00000000E+00  0.00000000E+00
  0.00000000E+00  0.00000000E+00  0.00000000E+00
  0.00000000E+00  0.00000000E+00  0.00000000E+00
  0.00000000E+00  0.00000000E+00  0.00000000E+00
  0.00000000E+00  0.00000000E+00  0.00000000E+00
  0.00000000E+00  0.00000000E+00  0.00000000E+00
  0.00000000E+00  0.00000000E+00  0.00000000E+00
  0.00000000E+00  0.00000000E+00  0.00000000E+00
  0.00000000E+00  0.00000000E+00  0.00000000E+00
  0.00000000E+00  0.00000000E+00  0.00000000E+00
  0.00000000E+00  0.00000000E+00  0.00000000E+00
  0.00000000E+00  0.00000000E+00  0.00000000E+00
  0.00000000E+00  0.00000000E+00  0.00000000E+00
  0.00000000E+00  0.00000000E+00  0.00000000E+00
  0.00000000E+00  0.00000000E+00  0.00000000E+00
  0.00000000E+00  0.00000000E+00  0.00000000E+00
  0.00000000E+00  0.00000000E+00  0.00000000E+00
  0.00000000E+00  0.00000000E+00  0.00000000E+00
  0.00000000E+00  0.00000000E+00  0.00000000E+00
  0.00000000E+00  0.00000000E+00  0.00000000E+00
  0.00000000E+00  0.00000000E+00  0.00000000E+00
  0.00000000E+00  0.00000000E+00  0.00000000E+00
  0.00000000E+00  0.00000000E+00  0.00000000E+00
  0.00000000E+00  0.00000000E+00  0.00000000E+00
  0.00000000E+00  0.00000000E+00  0.00000000E+00
  0.00000000E+00  0.00000000E+00  0.00000000E+00
  0.00000000E+00  0.00000000E+00  0.00000000E+00
  0.00000000E+00  0.00000000E+00  0.00000000E+00
  0.00000000E+00  0.00000000E+00  0.00000000E+00
  0.00000000E+00  0.00000000E+00  0.00000000E+00
  0.00000000E+00  0.00000000E+00  0.00000000E+00
  0.00000000E+00  0.00000000E+00  0.00000000E+00
  0.00000000E+00  0.00000000E+00  0.00000000E+00
  0.00000000E+00  0.00000000E+00  0.00000000E+00
  0.00000000E+00  0.00000000E+00  0.00000000E+00
  0.00000000E+00  0.00000000E+00  0.00000000E+00
  0.00000000E+00  0.00000000E+00  0.00000000E+00
  0.00000000E+00  0.00000000E+00  0.00000000E+00
  0.00000000E+00  0.00000000E+00  0.00000000E+00
  0.00000000E+00  0.00000000E+00  0.00000000E+00
  0.00000000E+00  0.00000000E+00  0.00000000E+00
  0.00000000E+00  0.00000000E+00  0.00000000E+00
  0.00000000E+00  0.00000000E+00  0.00000000E+00
  0.00000000E+00  0.00000000E+00  0.00000000E+00
  0.00000000E+00  0.00000000E+00  0.00000000E+00
  0.00000000E+00  0.00000000E+00  0.00000000E+00
  0.00000000E+00  0.00000000E+00  0.00000000E+00
  0.00000000E+00  0.00000000E+00  0.00000000E+00
  0.00000000E+00  0.00000000E+00  0.00000000E+00
  0.00000000E+00  0.00000000E+00  0.00000000E+00
  0.00000000E+00  0.00000000E+00  0.00000000E+00
  0.00000000E+00  0.00000000E+00  0.00000000E+00
  0.00000000E+00  0.00000000E+00  0.00000000E+00
  0.00000000E+00  0.00000000E+00  0.00000000E+00
  0.00000000E+00  0.00000000E+00  0.00000000E+00
  0.00000000E+00  0.00000000E+00  0.00000000E+00
  0.00000000E+00  0.00000000E+00  0.00000000E+00
  0.00000000E+00  0.00000000E+00  0.00000000E+00
