POSCAR-clean                            
   1.0000000000000000     
    14.8578513510000008   -0.0013713678000000    0.0000000000000000
    -7.4289256755000004   12.7568500169999997    0.0000000000000000
     0.0000000000000000    0.0000000000000000   15.0000000000000000
   C    N    C    Cr   C    O 
    59     1    10     1     1     1
Direct
 -0.0006010534011213  0.9989890906918506  0.4929217637270223
  0.0551481636588858  0.1104338139747398  0.4918999977485829
  0.1660477267746049  0.0013407464162444  0.4930451049119229
  0.2218132641334080  0.1122957672237642  0.4930289563923110
  0.3330461848253279  0.0021753215504949  0.4925632318843737
  0.3891253256297678  0.1132596251961565  0.4947059249761954
  0.4995824663427449  0.0009537723505144  0.4900189746401679
  0.5553563759855699  0.1125375847111581  0.4921494775751916
  0.6659360421555003  0.9989609052558913  0.4889712344228379
  0.7214644691903397  0.1101890131125791  0.4902017129660057
  0.8327228127619108  0.9987053458688402  0.4921626681547945
  0.8876936504945412  0.1098551773245194  0.4911658010099337
  0.9986983344882925  0.1653006142644371  0.4913605780904495
  0.0544311179025820  0.2770718237615619  0.4914608568932181
  0.1663305375783550  0.1677108284556787  0.4918468564241479
  0.2218087262212389  0.2786273510483450  0.4903295911163752
  0.3338328962115933  0.1690012151078104  0.4951030526338455
  0.3900227784714072  0.2807699775026629  0.4973813262454323
  0.5004334152146293  0.1691881847517387  0.4951281182570911
  0.5562315898139562  0.2809017853681473  0.4991281104324590
  0.6662676501166511  0.1665130253498481  0.4920255095584360
  0.7219826053215002  0.2777918485330993  0.4945588297466138
  0.8324231229380938  0.1657958234562997  0.4909091657450609
  0.8880424548520791  0.2772458625762894  0.4918941392605518
  0.9989508308026775  0.3328346432336552  0.4920682056755124
  0.0545619489587345  0.4444246804930170  0.4924992398199327
  0.1652578544095402  0.3331852058389197  0.4910948022727579
  0.2200640286056362  0.4445129439490367  0.4920193212042319
  0.3338869681377260  0.3356465054370646  0.4911600780479893
  0.3871089190593315  0.4457365121133534  0.4895400013528171
  0.5018429469384476  0.3391920900840194  0.5037906110752696
  0.5591684858199862  0.4510007172251186  0.5142230483582948
  0.6670200723756284  0.3336806353224114  0.4987332616923770
  0.7237320901384238  0.4449402977170333  0.5013763725492106
  0.8331802788474447  0.3332331060999053  0.4935188616573615
  0.8891286931211527  0.4446663471426130  0.4942901027223264
 -0.0002142337208248  0.5005340895233693  0.4928084095725227
  0.0554779820168354  0.6121767206251777  0.4923989002991324
  0.1651413950292447  0.5003037016571030  0.4926770010476658
  0.2208467107149480  0.6118809582722176  0.4919046138070108
  0.3304547337102508  0.4997412841881194  0.4879506859629335
  0.3868106137071007  0.6125708287724158  0.4859942530569908
  0.6697045306155360  0.5004428211749122  0.5082824766403933
  0.7255535864618621  0.6120644952486194  0.5077504514636103
  0.8345223858968166  0.5005068225850532  0.4974712761946962
  0.8901656298459137  0.6117893243714865  0.4972501900578087
  0.0004512900082413  0.6681152789960515  0.4938939616956887
  0.0561630029531470  0.7799758419626971  0.4933001429742097
  0.1660878022847806  0.6677702095378839  0.4914654787149150
  0.2220328179601027  0.7793377784396355  0.4908833640407579
  0.3314490428227855  0.6677069781362944  0.4897533420884972
  0.3882531660243184  0.7789815083562427  0.4878028595600721
  0.4972775994062426  0.6659610444340140  0.4826494884488346
  0.5541701341496360  0.7761198762641752  0.4857790743597035
  0.6644949640135421  0.6611377171357664  0.5128663887271443
  0.7188732557769119  0.7728556560411834  0.5011151759264343
  0.8354526291585564  0.6677108068809076  0.5007326398312011
  0.8899357473899759  0.7792479177185332  0.4983313165460432
  0.0006016400618224  0.8353706237720164  0.4949339120988189
  0.0555325320559229  0.9453842714645225  0.4934327289836700
  0.1668410187405951  0.8348752152518513  0.4919014448732975
  0.2215841712039088  0.9460924064108329  0.4925060206588401
  0.3331814631177830  0.8350111198444422  0.4895424521026202
  0.3885793368895787  0.9461977598776687  0.4905234969944043
  0.4992417127965831  0.8333482783122486  0.4860921845322712
  0.5548256629634719  0.9445838075620709  0.4881329119483362
  0.6653778986891403  0.8310201031017813  0.4928041957073913
  0.7210783890756252  0.9421519838875995  0.4909724890053880
  0.8309207978790556  0.8309838404118198  0.4978389132777477
  0.8881048892365250  0.9426793037562442  0.4939042528277953
  0.5126370641127278  0.5570952425467819  0.5405818560009581
  0.5237625454059432  0.5199531207483898  0.6606390560407679
  0.5308022747360607  0.5011029678621065  0.7348577045636799

  0.00000000E+00  0.00000000E+00  0.00000000E+00
  0.00000000E+00  0.00000000E+00  0.00000000E+00
  0.00000000E+00  0.00000000E+00  0.00000000E+00
  0.00000000E+00  0.00000000E+00  0.00000000E+00
  0.00000000E+00  0.00000000E+00  0.00000000E+00
  0.00000000E+00  0.00000000E+00  0.00000000E+00
  0.00000000E+00  0.00000000E+00  0.00000000E+00
  0.00000000E+00  0.00000000E+00  0.00000000E+00
  0.00000000E+00  0.00000000E+00  0.00000000E+00
  0.00000000E+00  0.00000000E+00  0.00000000E+00
  0.00000000E+00  0.00000000E+00  0.00000000E+00
  0.00000000E+00  0.00000000E+00  0.00000000E+00
  0.00000000E+00  0.00000000E+00  0.00000000E+00
  0.00000000E+00  0.00000000E+00  0.00000000E+00
  0.00000000E+00  0.00000000E+00  0.00000000E+00
  0.00000000E+00  0.00000000E+00  0.00000000E+00
  0.00000000E+00  0.00000000E+00  0.00000000E+00
  0.00000000E+00  0.00000000E+00  0.00000000E+00
  0.00000000E+00  0.00000000E+00  0.00000000E+00
  0.00000000E+00  0.00000000E+00  0.00000000E+00
  0.00000000E+00  0.00000000E+00  0.00000000E+00
  0.00000000E+00  0.00000000E+00  0.00000000E+00
  0.00000000E+00  0.00000000E+00  0.00000000E+00
  0.00000000E+00  0.00000000E+00  0.00000000E+00
  0.00000000E+00  0.00000000E+00  0.00000000E+00
  0.00000000E+00  0.00000000E+00  0.00000000E+00
  0.00000000E+00  0.00000000E+00  0.00000000E+00
  0.00000000E+00  0.00000000E+00  0.00000000E+00
  0.00000000E+00  0.00000000E+00  0.00000000E+00
  0.00000000E+00  0.00000000E+00  0.00000000E+00
  0.00000000E+00  0.00000000E+00  0.00000000E+00
  0.00000000E+00  0.00000000E+00  0.00000000E+00
  0.00000000E+00  0.00000000E+00  0.00000000E+00
  0.00000000E+00  0.00000000E+00  0.00000000E+00
  0.00000000E+00  0.00000000E+00  0.00000000E+00
  0.00000000E+00  0.00000000E+00  0.00000000E+00
  0.00000000E+00  0.00000000E+00  0.00000000E+00
  0.00000000E+00  0.00000000E+00  0.00000000E+00
  0.00000000E+00  0.00000000E+00  0.00000000E+00
  0.00000000E+00  0.00000000E+00  0.00000000E+00
  0.00000000E+00  0.00000000E+00  0.00000000E+00
  0.00000000E+00  0.00000000E+00  0.00000000E+00
  0.00000000E+00  0.00000000E+00  0.00000000E+00
  0.00000000E+00  0.00000000E+00  0.00000000E+00
  0.00000000E+00  0.00000000E+00  0.00000000E+00
  0.00000000E+00  0.00000000E+00  0.00000000E+00
  0.00000000E+00  0.00000000E+00  0.00000000E+00
  0.00000000E+00  0.00000000E+00  0.00000000E+00
  0.00000000E+00  0.00000000E+00  0.00000000E+00
  0.00000000E+00  0.00000000E+00  0.00000000E+00
  0.00000000E+00  0.00000000E+00  0.00000000E+00
  0.00000000E+00  0.00000000E+00  0.00000000E+00
  0.00000000E+00  0.00000000E+00  0.00000000E+00
  0.00000000E+00  0.00000000E+00  0.00000000E+00
  0.00000000E+00  0.00000000E+00  0.00000000E+00
  0.00000000E+00  0.00000000E+00  0.00000000E+00
  0.00000000E+00  0.00000000E+00  0.00000000E+00
  0.00000000E+00  0.00000000E+00  0.00000000E+00
  0.00000000E+00  0.00000000E+00  0.00000000E+00
  0.00000000E+00  0.00000000E+00  0.00000000E+00
  0.00000000E+00  0.00000000E+00  0.00000000E+00
  0.00000000E+00  0.00000000E+00  0.00000000E+00
  0.00000000E+00  0.00000000E+00  0.00000000E+00
  0.00000000E+00  0.00000000E+00  0.00000000E+00
  0.00000000E+00  0.00000000E+00  0.00000000E+00
  0.00000000E+00  0.00000000E+00  0.00000000E+00
  0.00000000E+00  0.00000000E+00  0.00000000E+00
  0.00000000E+00  0.00000000E+00  0.00000000E+00
  0.00000000E+00  0.00000000E+00  0.00000000E+00
  0.00000000E+00  0.00000000E+00  0.00000000E+00
  0.00000000E+00  0.00000000E+00  0.00000000E+00
  0.00000000E+00  0.00000000E+00  0.00000000E+00
  0.00000000E+00  0.00000000E+00  0.00000000E+00
