POSCAR-clean                            
   1.00000000000000     
    14.8611606303000006   -0.0038925079000000    0.0000000000000000
    -7.4305803151000003   12.7577832811000000    0.0000000000000000
     0.0000000000000000    0.0000000000000000   15.0000000000000000
   C    N    C    Cr   C    O 
    58     1    11     1     1     1
Direct
  0.9987420922481060  0.9985636580347992  0.4929109586208483
  0.0549112828839139  0.1105919936460103  0.4921666733160756
  0.1663055165734179  0.0009279066516427  0.4929211899061510
  0.2221808477500003  0.1125999413267162  0.4931004075088581
  0.3334435607191688  0.0020602262089383  0.4928143352215356
  0.3893718216079574  0.1136282157954231  0.4950614930174987
  0.4995962020183816  0.0011270634366538  0.4902051383170807
  0.5554040956092274  0.1127153397543646  0.4926179870296900
  0.6659042663420599  0.9991605084535075  0.4885270447081683
  0.7214169780991269  0.1103833320737941  0.4901898911108717
  0.8322961737902296  0.9985652683602303  0.4918723198407261
  0.8878507019243198  0.1101789850855401  0.4912526740783540
  0.9989169998945728  0.1657778490500014  0.4918296470926713
  0.0544710688481676  0.2773414506079369  0.4923170032064497
  0.1660432704690441  0.1671525687555452  0.4921643424559151
  0.2218655490445529  0.2786782330957016  0.4907605591861242
  0.3341445259035183  0.1695329950250827  0.4952222987034375
  0.3903503331015206  0.2812384044909350  0.4974962192653197
  0.5003011050909484  0.1693578905125965  0.4956961934975884
  0.5560375750897583  0.2811716659503133  0.4999714978778698
  0.6663239226750395  0.1667403601834081  0.4923808149958362
  0.7220797819114678  0.2781809504506108  0.4951571979875253
  0.8325957111447918  0.1659118219220063  0.4910738169951739
  0.8882907374548923  0.2775254446347181  0.4922031233125191
  0.9991198879816163  0.3331230750089653  0.4925044254179703
  0.0547227600715099  0.4448207899503230  0.4927347646498453
  0.1655461139517138  0.3333470755236732  0.4918021533759336
  0.2203146561892014  0.4448365332583936  0.4923749090422826
  0.3336744934838404  0.3356753105216085  0.4910941044101956
  0.3868737736328839  0.4456911395234914  0.4891453073435786
  0.5020063904817449  0.3396054188662002  0.5041063980795202
  0.5594842236196674  0.4519375927997998  0.5137802264899061
  0.6670611327092162  0.3340131068267700  0.4994694928275380
  0.7238104840976810  0.4453856319941586  0.5020917481306451
  0.8333163827632146  0.3335144467636212  0.4938100218497610
  0.8892917803419604  0.4447936297731119  0.4945257060100253
 -0.0000833153368862  0.5008552483679557  0.4931073581832071
  0.0557083721437136  0.6126369632021953  0.4926282596369427
  0.1653721827175521  0.5006547923732734  0.4929352619404867
  0.2208731093681034  0.6119823382337274  0.4921789048391589
  0.3306237659742173  0.5000462102497364  0.4875956428785646
  0.3869811511245321  0.6128193819454986  0.4851260612460898
  0.6700629381218861  0.5010539799038578  0.5087736026486623
  0.7259576764693086  0.6127437456916268  0.5083467017981030
  0.8347491984924029  0.5008776299810690  0.4979140326948634
  0.8902198842663712  0.6116150988389556  0.4977072923386325
  0.0004552175160207  0.6685100863281984  0.4941559903115751
  0.0554096660774938  0.7795387377753330  0.4935383774481697
  0.1661351198307587  0.6679596128251241  0.4915872941829169
  0.2215520580531833  0.7792837172701008  0.4911737779143963
  0.3314461246158029  0.6677673856935652  0.4896761054790032
  0.3881208915319141  0.7789853218911892  0.4877732934171632
  0.4972026643071145  0.6662215225742820  0.4812348973734687
  0.5539532506006414  0.7761013813927252  0.4850983054544460
  0.6649547015866279  0.6615632850991825  0.5129479465304677
  0.7193373975135791  0.7726387783490376  0.5010614262168157
  0.8360437854715209  0.6680212891556803  0.5012136122205466
  0.8903307315209745  0.7788146248148839  0.4982669695726015
  0.0002437972898941  0.8343533116447824  0.4948795868696876
  0.0551829240615058  0.9444976570792292  0.4933187693712850
  0.1661422224104589  0.8352522782652396  0.4922318129699399
  0.2228376843043620  0.9465752296251168  0.4926488971453736
  0.3327398883274645  0.8348646977850201  0.4898217285853200
  0.3886419194231185  0.9460406059906566  0.4907410492906317
  0.4991215080700877  0.8334657708101721  0.4856528478823373
  0.5548380024480560  0.9448249634279030  0.4878004023417462
  0.6654404839892534  0.8308101263380304  0.4924848927739093
  0.7206874763083321  0.9419421335838343  0.4905573495643295
  0.8323587597697981  0.8314807103779444  0.4974051501768304
  0.8873133672594038  0.9430905643947739  0.4934096806526633
  0.5120847091327132  0.5570118469818347  0.5390059086072698
  0.5217026353079668  0.5162749593098395  0.6576451650753472
  0.5281832071459421  0.4941823499072129  0.7310035594608905
 
  0.00000000E+00  0.00000000E+00  0.00000000E+00
  0.00000000E+00  0.00000000E+00  0.00000000E+00
  0.00000000E+00  0.00000000E+00  0.00000000E+00
  0.00000000E+00  0.00000000E+00  0.00000000E+00
  0.00000000E+00  0.00000000E+00  0.00000000E+00
  0.00000000E+00  0.00000000E+00  0.00000000E+00
  0.00000000E+00  0.00000000E+00  0.00000000E+00
  0.00000000E+00  0.00000000E+00  0.00000000E+00
  0.00000000E+00  0.00000000E+00  0.00000000E+00
  0.00000000E+00  0.00000000E+00  0.00000000E+00
  0.00000000E+00  0.00000000E+00  0.00000000E+00
  0.00000000E+00  0.00000000E+00  0.00000000E+00
  0.00000000E+00  0.00000000E+00  0.00000000E+00
  0.00000000E+00  0.00000000E+00  0.00000000E+00
  0.00000000E+00  0.00000000E+00  0.00000000E+00
  0.00000000E+00  0.00000000E+00  0.00000000E+00
  0.00000000E+00  0.00000000E+00  0.00000000E+00
  0.00000000E+00  0.00000000E+00  0.00000000E+00
  0.00000000E+00  0.00000000E+00  0.00000000E+00
  0.00000000E+00  0.00000000E+00  0.00000000E+00
  0.00000000E+00  0.00000000E+00  0.00000000E+00
  0.00000000E+00  0.00000000E+00  0.00000000E+00
  0.00000000E+00  0.00000000E+00  0.00000000E+00
  0.00000000E+00  0.00000000E+00  0.00000000E+00
  0.00000000E+00  0.00000000E+00  0.00000000E+00
  0.00000000E+00  0.00000000E+00  0.00000000E+00
  0.00000000E+00  0.00000000E+00  0.00000000E+00
  0.00000000E+00  0.00000000E+00  0.00000000E+00
  0.00000000E+00  0.00000000E+00  0.00000000E+00
  0.00000000E+00  0.00000000E+00  0.00000000E+00
  0.00000000E+00  0.00000000E+00  0.00000000E+00
  0.00000000E+00  0.00000000E+00  0.00000000E+00
  0.00000000E+00  0.00000000E+00  0.00000000E+00
  0.00000000E+00  0.00000000E+00  0.00000000E+00
  0.00000000E+00  0.00000000E+00  0.00000000E+00
  0.00000000E+00  0.00000000E+00  0.00000000E+00
  0.00000000E+00  0.00000000E+00  0.00000000E+00
  0.00000000E+00  0.00000000E+00  0.00000000E+00
  0.00000000E+00  0.00000000E+00  0.00000000E+00
  0.00000000E+00  0.00000000E+00  0.00000000E+00
  0.00000000E+00  0.00000000E+00  0.00000000E+00
  0.00000000E+00  0.00000000E+00  0.00000000E+00
  0.00000000E+00  0.00000000E+00  0.00000000E+00
  0.00000000E+00  0.00000000E+00  0.00000000E+00
  0.00000000E+00  0.00000000E+00  0.00000000E+00
  0.00000000E+00  0.00000000E+00  0.00000000E+00
  0.00000000E+00  0.00000000E+00  0.00000000E+00
  0.00000000E+00  0.00000000E+00  0.00000000E+00
  0.00000000E+00  0.00000000E+00  0.00000000E+00
  0.00000000E+00  0.00000000E+00  0.00000000E+00
  0.00000000E+00  0.00000000E+00  0.00000000E+00
  0.00000000E+00  0.00000000E+00  0.00000000E+00
  0.00000000E+00  0.00000000E+00  0.00000000E+00
  0.00000000E+00  0.00000000E+00  0.00000000E+00
  0.00000000E+00  0.00000000E+00  0.00000000E+00
  0.00000000E+00  0.00000000E+00  0.00000000E+00
  0.00000000E+00  0.00000000E+00  0.00000000E+00
  0.00000000E+00  0.00000000E+00  0.00000000E+00
  0.00000000E+00  0.00000000E+00  0.00000000E+00
  0.00000000E+00  0.00000000E+00  0.00000000E+00
  0.00000000E+00  0.00000000E+00  0.00000000E+00
  0.00000000E+00  0.00000000E+00  0.00000000E+00
  0.00000000E+00  0.00000000E+00  0.00000000E+00
  0.00000000E+00  0.00000000E+00  0.00000000E+00
  0.00000000E+00  0.00000000E+00  0.00000000E+00
  0.00000000E+00  0.00000000E+00  0.00000000E+00
  0.00000000E+00  0.00000000E+00  0.00000000E+00
  0.00000000E+00  0.00000000E+00  0.00000000E+00
  0.00000000E+00  0.00000000E+00  0.00000000E+00
  0.00000000E+00  0.00000000E+00  0.00000000E+00
  0.00000000E+00  0.00000000E+00  0.00000000E+00
  0.00000000E+00  0.00000000E+00  0.00000000E+00
  0.00000000E+00  0.00000000E+00  0.00000000E+00
