POSCAR-clean                            
   1.0000000000000000     
    14.8591925694999993   -0.0097938460000000    0.0000000000000000
    -7.4295962846999997   12.7626307388000004    0.0000000000000000
     0.0000000000000000    0.0000000000000000   15.0000000000000000
   C    N    C    Cr   C    O 
    64     1     5     1     1     1
Direct
  0.0011582040077497  0.0009552634641629  0.4902661221723698
  0.0570504954068060  0.1125610918467508  0.4921173549209420
  0.1682757251918106  0.0017498367247056  0.4914836724669943
  0.2239115278063129  0.1132713991913554  0.4936912878606088
  0.3345405698900133  0.0013386254264091  0.4913797677339283
  0.3901909913313326  0.1128500674165565  0.4919590118197447
  0.5001749593314423  0.9984800608742569  0.4924506308328477
  0.5562696625540458  0.1103524734752910  0.4919458364361922
  0.6656333645069131  0.9975286775497419  0.4927789964847591
  0.7216864760404837  0.1094959375038754  0.4917424595015224
  0.8330305095731941  0.9989793172762401  0.4895196602549712
  0.8888238653971096  0.1104177626940227  0.4905541244243619
  0.0002271441089721  0.1667267623090871  0.4919731208929795
  0.0559111602991374  0.2780803999016642  0.4940102141897612
  0.1687684793819005  0.1691312881651004  0.4946226873635746
  0.2250099335350170  0.2811618418543740  0.4989484273548116
  0.3352626131333115  0.1694711138917923  0.4941610481042801
  0.3908078964899546  0.2809769299503834  0.4974130799747931
  0.5010149430797850  0.1667244114814473  0.4917556587561651
  0.5567427678566763  0.2782134249213801  0.4912406103139829
  0.6669750294137164  0.1656076100659938  0.4919086591574219
  0.7229229765724255  0.2772324346450137  0.4922105556757911
  0.8330538088433718  0.1655690453946073  0.4912082461600994
  0.8890927628019391  0.2771889655850396  0.4917092834388657
  0.0001409907087148  0.3332771217373606  0.4927747852649622
  0.0556866824129092  0.4447863358555445  0.4933316267789271
  0.1668760972683714  0.3340359075120032  0.4981258082953043
  0.2214857074916393  0.4451927900570447  0.5002730000298891
  0.3375099266411561  0.3394458401191171  0.5038977809709534
  0.3925208245319250  0.4516306318686426  0.5142752019923204
  0.5018606682038522  0.3350534379141825  0.4923677150973560
  0.5586939959093405  0.4451951854009178  0.4924361185945538
  0.6678624712711111  0.3329638017988244  0.4924487455505125
  0.7244759744333240  0.4443574324732313  0.4938961465118514
  0.8338939999364006  0.3328872262993202  0.4921932752351067
  0.8898039699893406  0.4444035752214676  0.4925468652675456
  0.0006502064859471  0.5003584888935710  0.4923624429075121
  0.0562711632608871  0.6117506568782167  0.4919667139950347
  0.1663798523147736  0.5008745508050486  0.4961166419589387
  0.2219616336687268  0.6122232920084610  0.4956664484011089
  0.3311908427586515  0.5008597062616735  0.5077116370377662
  0.3865106648553074  0.6118960801571425  0.5072661441114850
  0.6693462888291082  0.4996674448502708  0.4904272223162260
  0.7255853009154434  0.6125203968036281  0.4877838634445511
  0.8351607354271020  0.5002156475351462  0.4936734263469912
  0.8908733848969804  0.6117693577285362  0.4929826303371362
  0.0014352472195878  0.6675602951108567  0.4915665347219857
  0.0569965821497332  0.7790341163416853  0.4906855915187118
  0.1670903149670706  0.6674980921313253  0.4927556639108569
  0.2234172616051217  0.7786602851577133  0.4920972748498199
  0.3333483776119576  0.6679548474418950  0.4989379809399764
  0.3900702592763359  0.7788071173157575  0.4963703978164773
  0.4967074003732309  0.6627262157580377  0.5140524010070917
  0.5531390816682732  0.7730298203655155  0.5019264933130646
  0.6686074875751025  0.6659430082171237  0.4835186661696046
  0.7212554012067542  0.7758403015370758  0.4866548171295504
  0.8361060333102076  0.6676096430504117  0.4913532873801431
  0.8903739418802538  0.7788052142036956  0.4888462407907566
  0.0015485625299015  0.8346160276528082  0.4897964942733488
  0.0570686360606442  0.9459135250279072  0.4902875552832801
  0.1682017660979568  0.8345672024844355  0.4909140642963162
  0.2234617769035602  0.9459021835168665  0.4910616039198811
  0.3348048919285228  0.8342875825149163  0.4931275766226650
  0.3894489492125943  0.9453171353130356  0.4920005574751935
  0.4995271347753856  0.8315198320991372  0.4969935457393236
  0.5549724718582949  0.9420185137525225  0.4937804697877920
  0.6650010413107474  0.8312096129518287  0.4933924482775826
  0.7214695339201952  0.9420678297335837  0.4915910970929157
  0.8336424697705928  0.8332133064529191  0.4870382203834484
  0.8895503480830276  0.9445206889281761  0.4887356837402121
  0.5450014898432733  0.5570140209140420  0.5408015470009568
  0.4982699682520747  0.5215513921181067  0.6607306940205625
  0.4737575595008198  0.5043770823179686  0.7354083358140048

  0.00000000E+00  0.00000000E+00  0.00000000E+00
  0.00000000E+00  0.00000000E+00  0.00000000E+00
  0.00000000E+00  0.00000000E+00  0.00000000E+00
  0.00000000E+00  0.00000000E+00  0.00000000E+00
  0.00000000E+00  0.00000000E+00  0.00000000E+00
  0.00000000E+00  0.00000000E+00  0.00000000E+00
  0.00000000E+00  0.00000000E+00  0.00000000E+00
  0.00000000E+00  0.00000000E+00  0.00000000E+00
  0.00000000E+00  0.00000000E+00  0.00000000E+00
  0.00000000E+00  0.00000000E+00  0.00000000E+00
  0.00000000E+00  0.00000000E+00  0.00000000E+00
  0.00000000E+00  0.00000000E+00  0.00000000E+00
  0.00000000E+00  0.00000000E+00  0.00000000E+00
  0.00000000E+00  0.00000000E+00  0.00000000E+00
  0.00000000E+00  0.00000000E+00  0.00000000E+00
  0.00000000E+00  0.00000000E+00  0.00000000E+00
  0.00000000E+00  0.00000000E+00  0.00000000E+00
  0.00000000E+00  0.00000000E+00  0.00000000E+00
  0.00000000E+00  0.00000000E+00  0.00000000E+00
  0.00000000E+00  0.00000000E+00  0.00000000E+00
  0.00000000E+00  0.00000000E+00  0.00000000E+00
  0.00000000E+00  0.00000000E+00  0.00000000E+00
  0.00000000E+00  0.00000000E+00  0.00000000E+00
  0.00000000E+00  0.00000000E+00  0.00000000E+00
  0.00000000E+00  0.00000000E+00  0.00000000E+00
  0.00000000E+00  0.00000000E+00  0.00000000E+00
  0.00000000E+00  0.00000000E+00  0.00000000E+00
  0.00000000E+00  0.00000000E+00  0.00000000E+00
  0.00000000E+00  0.00000000E+00  0.00000000E+00
  0.00000000E+00  0.00000000E+00  0.00000000E+00
  0.00000000E+00  0.00000000E+00  0.00000000E+00
  0.00000000E+00  0.00000000E+00  0.00000000E+00
  0.00000000E+00  0.00000000E+00  0.00000000E+00
  0.00000000E+00  0.00000000E+00  0.00000000E+00
  0.00000000E+00  0.00000000E+00  0.00000000E+00
  0.00000000E+00  0.00000000E+00  0.00000000E+00
  0.00000000E+00  0.00000000E+00  0.00000000E+00
  0.00000000E+00  0.00000000E+00  0.00000000E+00
  0.00000000E+00  0.00000000E+00  0.00000000E+00
  0.00000000E+00  0.00000000E+00  0.00000000E+00
  0.00000000E+00  0.00000000E+00  0.00000000E+00
  0.00000000E+00  0.00000000E+00  0.00000000E+00
  0.00000000E+00  0.00000000E+00  0.00000000E+00
  0.00000000E+00  0.00000000E+00  0.00000000E+00
  0.00000000E+00  0.00000000E+00  0.00000000E+00
  0.00000000E+00  0.00000000E+00  0.00000000E+00
  0.00000000E+00  0.00000000E+00  0.00000000E+00
  0.00000000E+00  0.00000000E+00  0.00000000E+00
  0.00000000E+00  0.00000000E+00  0.00000000E+00
  0.00000000E+00  0.00000000E+00  0.00000000E+00
  0.00000000E+00  0.00000000E+00  0.00000000E+00
  0.00000000E+00  0.00000000E+00  0.00000000E+00
  0.00000000E+00  0.00000000E+00  0.00000000E+00
  0.00000000E+00  0.00000000E+00  0.00000000E+00
  0.00000000E+00  0.00000000E+00  0.00000000E+00
  0.00000000E+00  0.00000000E+00  0.00000000E+00
  0.00000000E+00  0.00000000E+00  0.00000000E+00
  0.00000000E+00  0.00000000E+00  0.00000000E+00
  0.00000000E+00  0.00000000E+00  0.00000000E+00
  0.00000000E+00  0.00000000E+00  0.00000000E+00
  0.00000000E+00  0.00000000E+00  0.00000000E+00
  0.00000000E+00  0.00000000E+00  0.00000000E+00
  0.00000000E+00  0.00000000E+00  0.00000000E+00
  0.00000000E+00  0.00000000E+00  0.00000000E+00
  0.00000000E+00  0.00000000E+00  0.00000000E+00
  0.00000000E+00  0.00000000E+00  0.00000000E+00
  0.00000000E+00  0.00000000E+00  0.00000000E+00
  0.00000000E+00  0.00000000E+00  0.00000000E+00
  0.00000000E+00  0.00000000E+00  0.00000000E+00
  0.00000000E+00  0.00000000E+00  0.00000000E+00
  0.00000000E+00  0.00000000E+00  0.00000000E+00
  0.00000000E+00  0.00000000E+00  0.00000000E+00
  0.00000000E+00  0.00000000E+00  0.00000000E+00
