POSCAR-clean                            
   1.00000000000000     
    14.8571429462628295    0.0074808514384851    0.0000000000000000
    -7.4285714730814858   12.7495032627210723    0.0000000000000000
     0.0000000000000000    0.0000000000000000   15.0000000000000000
   C    N    C    Cr
     8     1    61     1
Direct
  0.9996557418599210  0.9998355154247990  0.4976402660337966
  0.0555972332223481  0.1112124349685989  0.4977234374353047
  0.1679693047015634  0.0019327346621252  0.4975283258134446
  0.2235553318280368  0.1133282680035030  0.4982370077504830
  0.3347045890726652  0.0020163070891486  0.4977215005561443
  0.3900476923512980  0.1131832042280462  0.4983722993669751
  0.5009916981475574  0.0000397018476937  0.4977097105398763
  0.5556471379194838  0.1113800306176501  0.4976597384803102
  0.6658205246783082  0.9977911988363040  0.4982995022400904
  0.7210914553382914  0.1081855358939460  0.4976335293421886
  0.8316373629265448  0.9981140119109577  0.4983253136397414
  0.8879555298007579  0.1091620733322855  0.4977190877139139
  0.9989210079818163  0.1654049144593213  0.4978093181153148
  0.0542902197708580  0.2767888786234385  0.4984843036559017
  0.1673714115722667  0.1680691299498443  0.4983645565770806
  0.2230508866354811  0.2796913539388929  0.5000796563150965
  0.3352010888198543  0.1700767968741329  0.4994017686345110
  0.3908091117025805  0.2813881367295798  0.5025348235114450
  0.5010782925621398  0.1679224408999556  0.4983956800560839
  0.5570747961851121  0.2797438496689137  0.5000591959434665
  0.6664752715308517  0.1645343810821261  0.4975640008975669
  0.7226628364485044  0.2761067939075126  0.4980226526159598
  0.8317143334721651  0.1638652324057172  0.4976390876191468
  0.8875183271715851  0.2757750563304878  0.4977493420336288
  0.9987431385817641  0.3319284857777770  0.4983028987558555
  0.0542980955490539  0.4436183029782199  0.4987536740933216
  0.1653014940932046  0.3329581627095708  0.5000173447280540
  0.2191809583846237  0.4440219377781177  0.5017246014057379
  0.3354835596875226  0.3379018956031263  0.5033810635796256
  0.3880514205925579  0.4490012687407724  0.5093265268898408
  0.5029238595897926  0.3379245942484067  0.5036152962508532
  0.5612007573456856  0.4487088546640322  0.5097601687060933
  0.6677313604280247  0.3325324442624494  0.4996469083567484
  0.7248435799786961  0.4437727803301596  0.5012553977651278
  0.8332474155655587  0.3319503094418175  0.4979013743079738
  0.8895330468293460  0.4437792702673018  0.4982444814691165
  0.9999384691400677  0.4997829948199165  0.4982685481734275
  0.0557160177954326  0.6113137379658607  0.4982635270233071
  0.1646229850625683  0.4998671543141082  0.5002855457912992
  0.2205217877017933  0.6115250403792023  0.5002677235795017
  0.3291960139297853  0.4996606840230850  0.5052365797825731
  0.3852152443106334  0.6119219505724623  0.5052033331900100
  0.6706449972139839  0.4994082181693038  0.5052287142288641
  0.7267687014089236  0.6120712953433893  0.5051436325493881
  0.8355137517525315  0.4998397578515810  0.4995484514488432
  0.8911460755816258  0.6112640203511591  0.4995495376614534
  0.0013130028326087  0.6673128549633423  0.4982488429197182
  0.0567218452260521  0.7789669878615612  0.4978994906031713
  0.1664139896279993  0.6674705290656264  0.4987517945350793
  0.2225516049731024  0.7789368711565781  0.4983075999127658
  0.3312958137184477  0.6676666878392803  0.5016609687162430
  0.3886448080297078  0.7790031835008357  0.4999557314582599
  0.4949750502471488  0.6626876564927471  0.5094829528596765
  0.5528708499677973  0.7728898172738351  0.5035520717642056
  0.6679621528360734  0.6629847486254947  0.5095873250421796
  0.7205773112632056  0.7739862506368386  0.5035263232933365
  0.8364585745985147  0.6673466252983222  0.5011909980962670
  0.8903119778872157  0.7783672491700122  0.4996190801788373
  0.0013578644651931  0.8344897889902269  0.4980195895758060
  0.0565294572238626  0.9456382176624735  0.4975306636916859
  0.1676091454470336  0.8348501529490481  0.4977372458433026
  0.2233885319660074  0.9462596555296903  0.4976018586598070
  0.3335798497261865  0.8345286348753916  0.4984681823111722
  0.3898490156312853  0.9455751250440358  0.4978045749330001
  0.5000817011074558  0.8322696946685011  0.5000215800025760
  0.5559206231003692  0.9434168228428210  0.4983536407279173
  0.6647893009027940  0.8306207295283856  0.5025909939572932
  0.7199498624924475  0.9413779418261536  0.4994716004101955
  0.8326467792402710  0.8316038436705901  0.5000215083479227
  0.8877342196346395  0.9430088456323533  0.4983949979108065
  0.5280229127483768  0.5556598447486084  0.5552609286375493
 
  0.00000000E+00  0.00000000E+00  0.00000000E+00
  0.00000000E+00  0.00000000E+00  0.00000000E+00
  0.00000000E+00  0.00000000E+00  0.00000000E+00
  0.00000000E+00  0.00000000E+00  0.00000000E+00
  0.00000000E+00  0.00000000E+00  0.00000000E+00
  0.00000000E+00  0.00000000E+00  0.00000000E+00
  0.00000000E+00  0.00000000E+00  0.00000000E+00
  0.00000000E+00  0.00000000E+00  0.00000000E+00
  0.00000000E+00  0.00000000E+00  0.00000000E+00
  0.00000000E+00  0.00000000E+00  0.00000000E+00
  0.00000000E+00  0.00000000E+00  0.00000000E+00
  0.00000000E+00  0.00000000E+00  0.00000000E+00
  0.00000000E+00  0.00000000E+00  0.00000000E+00
  0.00000000E+00  0.00000000E+00  0.00000000E+00
  0.00000000E+00  0.00000000E+00  0.00000000E+00
  0.00000000E+00  0.00000000E+00  0.00000000E+00
  0.00000000E+00  0.00000000E+00  0.00000000E+00
  0.00000000E+00  0.00000000E+00  0.00000000E+00
  0.00000000E+00  0.00000000E+00  0.00000000E+00
  0.00000000E+00  0.00000000E+00  0.00000000E+00
  0.00000000E+00  0.00000000E+00  0.00000000E+00
  0.00000000E+00  0.00000000E+00  0.00000000E+00
  0.00000000E+00  0.00000000E+00  0.00000000E+00
  0.00000000E+00  0.00000000E+00  0.00000000E+00
  0.00000000E+00  0.00000000E+00  0.00000000E+00
  0.00000000E+00  0.00000000E+00  0.00000000E+00
  0.00000000E+00  0.00000000E+00  0.00000000E+00
  0.00000000E+00  0.00000000E+00  0.00000000E+00
  0.00000000E+00  0.00000000E+00  0.00000000E+00
  0.00000000E+00  0.00000000E+00  0.00000000E+00
  0.00000000E+00  0.00000000E+00  0.00000000E+00
  0.00000000E+00  0.00000000E+00  0.00000000E+00
  0.00000000E+00  0.00000000E+00  0.00000000E+00
  0.00000000E+00  0.00000000E+00  0.00000000E+00
  0.00000000E+00  0.00000000E+00  0.00000000E+00
  0.00000000E+00  0.00000000E+00  0.00000000E+00
  0.00000000E+00  0.00000000E+00  0.00000000E+00
  0.00000000E+00  0.00000000E+00  0.00000000E+00
  0.00000000E+00  0.00000000E+00  0.00000000E+00
  0.00000000E+00  0.00000000E+00  0.00000000E+00
  0.00000000E+00  0.00000000E+00  0.00000000E+00
  0.00000000E+00  0.00000000E+00  0.00000000E+00
  0.00000000E+00  0.00000000E+00  0.00000000E+00
  0.00000000E+00  0.00000000E+00  0.00000000E+00
  0.00000000E+00  0.00000000E+00  0.00000000E+00
  0.00000000E+00  0.00000000E+00  0.00000000E+00
  0.00000000E+00  0.00000000E+00  0.00000000E+00
  0.00000000E+00  0.00000000E+00  0.00000000E+00
  0.00000000E+00  0.00000000E+00  0.00000000E+00
  0.00000000E+00  0.00000000E+00  0.00000000E+00
  0.00000000E+00  0.00000000E+00  0.00000000E+00
  0.00000000E+00  0.00000000E+00  0.00000000E+00
  0.00000000E+00  0.00000000E+00  0.00000000E+00
  0.00000000E+00  0.00000000E+00  0.00000000E+00
  0.00000000E+00  0.00000000E+00  0.00000000E+00
  0.00000000E+00  0.00000000E+00  0.00000000E+00
  0.00000000E+00  0.00000000E+00  0.00000000E+00
  0.00000000E+00  0.00000000E+00  0.00000000E+00
  0.00000000E+00  0.00000000E+00  0.00000000E+00
  0.00000000E+00  0.00000000E+00  0.00000000E+00
  0.00000000E+00  0.00000000E+00  0.00000000E+00
  0.00000000E+00  0.00000000E+00  0.00000000E+00
  0.00000000E+00  0.00000000E+00  0.00000000E+00
  0.00000000E+00  0.00000000E+00  0.00000000E+00
  0.00000000E+00  0.00000000E+00  0.00000000E+00
  0.00000000E+00  0.00000000E+00  0.00000000E+00
  0.00000000E+00  0.00000000E+00  0.00000000E+00
  0.00000000E+00  0.00000000E+00  0.00000000E+00
  0.00000000E+00  0.00000000E+00  0.00000000E+00
  0.00000000E+00  0.00000000E+00  0.00000000E+00
  0.00000000E+00  0.00000000E+00  0.00000000E+00
