POSCAR-clean                            
   1.00000000000000     
    14.8584948117652473    0.0076534732915072    0.0000000000000000
    -7.4292474058326876   12.7385461942503042    0.0000000000000000
     0.0000000000000000    0.0000000000000000   15.0000000000000000
   C    N    C    Cr
    40     1    29     1
Direct
  0.0004593152439465  0.0006632628432117  0.4977830936812945
  0.0562198416279731  0.1122347777666234  0.4976655622770171
  0.1681690659244325  0.0025246755674132  0.4975320456421464
  0.2238545985655315  0.1140405002644040  0.4984043040288046
  0.3342306905674778  0.0019203574049351  0.4977000188774868
  0.3899523258587690  0.1135904423230842  0.4983947135168853
  0.4998033245308456  0.9990230619032153  0.4977544293947708
  0.5555154895621605  0.1106778634084199  0.4977937540491378
  0.6653438508585161  0.9971862048254029  0.4984032464372181
  0.7211801448802166  0.1088379342523210  0.4974932204726736
  0.8320964639108681  0.9978196082906977  0.4983508612567797
  0.8878884170738950  0.1094435536748325  0.4977286293813082
  0.9994513273028108  0.1662366895217179  0.4978478317392745
  0.0549257100981543  0.2777367572214505  0.4983579016700362
  0.1680553877988068  0.1692555265133410  0.4982508651423391
  0.2239052890290531  0.2808955628156900  0.5002449651870015
  0.3352930631945721  0.1709801882102497  0.4995839444315991
  0.3909449658305042  0.2826751628554491  0.5028178539269678
  0.5007236091135452  0.1676588953529271  0.4985252733868542
  0.5565699456179437  0.2792594980518757  0.4997060233672872
  0.6663849397485299  0.1652165096761735  0.4975156456763259
  0.7222402050484794  0.2765516918753016  0.4980972553866240
  0.8323129912762587  0.1648773822577295  0.4975193401502704
  0.8879516869786346  0.2762650357385598  0.4976672170105755
  0.9989947571742792  0.3323874600847485  0.4982055788360961
  0.0545671376010752  0.4436167568635729  0.4984351698353549
  0.1663182271018874  0.3340912106350030  0.4995934175633366
  0.2202354386883658  0.4449337602056490  0.5003768643060194
  0.3361777315019258  0.3406344655762956  0.5051543866532403
  0.3890579151671306  0.4522095032740172  0.5138322354258000
  0.5022478099300862  0.3372219701892058  0.5022811026913465
  0.5601797446431968  0.4477031752513539  0.5069659667664342
  0.6674829382764235  0.3328072456602871  0.4998286877051367
  0.7245612719232485  0.4438960166946255  0.5019664796645779
  0.8330981658373973  0.3321608729760596  0.4978820501803154
  0.8893816744979017  0.4437935861889083  0.4984021307456549
  0.0000798475726678  0.4998475604209177  0.4982555461597563
  0.0555955773028803  0.6113081594370726  0.4982762582478668
  0.1651547877858570  0.5001231807825265  0.4991667317818587
  0.2201051838126815  0.6113366018312177  0.4993356065138481
  0.3278637353486735  0.4995050360476487  0.5052679608966435
  0.3842218208995354  0.6097880321641692  0.5049450076820117
  0.6700514377703216  0.4994049475579910  0.5046398923848150
  0.7262859141638317  0.6118921505198359  0.5048907874657360
  0.8352487106609221  0.4999503188495779  0.5002321320093576
  0.8909322524863077  0.6114285528708567  0.5002899570083073
  0.0011953442437189  0.6674674363466813  0.4983533126454929
  0.0567154064079637  0.7791207139427716  0.4978571581720564
  0.1661622554189267  0.6674132944850197  0.4986207660419675
  0.2224369769805249  0.7788967340590677  0.4982456966068015
  0.3304112526944571  0.6657029568490509  0.5003776167761212
  0.3878812795925050  0.7770270659533427  0.4997064318687012
  0.4929668417985195  0.6579383590613060  0.5119069866190594
  0.5517983826745664  0.7705362499923658  0.5048623319502157
  0.6683426357862571  0.6638107747682198  0.5072079531610557
  0.7209027863405754  0.7741782113700808  0.5023256062037253
  0.8363843739423850  0.6675194508482869  0.5023092813636697
  0.8904611809946413  0.7785288841497405  0.4999864095968913
  0.0015360326097512  0.8348023789946492  0.4981199259785348
  0.0569063778872599  0.9461582431582456  0.4975356147258250
  0.1675872170163381  0.8350399825448291  0.4976168080514775
  0.2232968489781420  0.9464819356998900  0.4975211112075879
  0.3331752629018265  0.8336244554037220  0.4984285890107253
  0.3889606880207364  0.9451130205671333  0.4978412039087308
  0.4986015330274153  0.8297514027322983  0.5004752329786905
  0.5544890257208032  0.9418646544501161  0.4984548998858033
  0.6641177298166059  0.8289480570438423  0.5025919402600518
  0.7201107236209471  0.9405367574563759  0.4994748739457763
  0.8330864962605539  0.8320386910224847  0.4997452436773480
  0.8887587583398221  0.9436767253974202  0.4984971831604691
  0.5346200202531716  0.5554317591360528  0.5552358546023135
 
  0.00000000E+00  0.00000000E+00  0.00000000E+00
  0.00000000E+00  0.00000000E+00  0.00000000E+00
  0.00000000E+00  0.00000000E+00  0.00000000E+00
  0.00000000E+00  0.00000000E+00  0.00000000E+00
  0.00000000E+00  0.00000000E+00  0.00000000E+00
  0.00000000E+00  0.00000000E+00  0.00000000E+00
  0.00000000E+00  0.00000000E+00  0.00000000E+00
  0.00000000E+00  0.00000000E+00  0.00000000E+00
  0.00000000E+00  0.00000000E+00  0.00000000E+00
  0.00000000E+00  0.00000000E+00  0.00000000E+00
  0.00000000E+00  0.00000000E+00  0.00000000E+00
  0.00000000E+00  0.00000000E+00  0.00000000E+00
  0.00000000E+00  0.00000000E+00  0.00000000E+00
  0.00000000E+00  0.00000000E+00  0.00000000E+00
  0.00000000E+00  0.00000000E+00  0.00000000E+00
  0.00000000E+00  0.00000000E+00  0.00000000E+00
  0.00000000E+00  0.00000000E+00  0.00000000E+00
  0.00000000E+00  0.00000000E+00  0.00000000E+00
  0.00000000E+00  0.00000000E+00  0.00000000E+00
  0.00000000E+00  0.00000000E+00  0.00000000E+00
  0.00000000E+00  0.00000000E+00  0.00000000E+00
  0.00000000E+00  0.00000000E+00  0.00000000E+00
  0.00000000E+00  0.00000000E+00  0.00000000E+00
  0.00000000E+00  0.00000000E+00  0.00000000E+00
  0.00000000E+00  0.00000000E+00  0.00000000E+00
  0.00000000E+00  0.00000000E+00  0.00000000E+00
  0.00000000E+00  0.00000000E+00  0.00000000E+00
  0.00000000E+00  0.00000000E+00  0.00000000E+00
  0.00000000E+00  0.00000000E+00  0.00000000E+00
  0.00000000E+00  0.00000000E+00  0.00000000E+00
  0.00000000E+00  0.00000000E+00  0.00000000E+00
  0.00000000E+00  0.00000000E+00  0.00000000E+00
  0.00000000E+00  0.00000000E+00  0.00000000E+00
  0.00000000E+00  0.00000000E+00  0.00000000E+00
  0.00000000E+00  0.00000000E+00  0.00000000E+00
  0.00000000E+00  0.00000000E+00  0.00000000E+00
  0.00000000E+00  0.00000000E+00  0.00000000E+00
  0.00000000E+00  0.00000000E+00  0.00000000E+00
  0.00000000E+00  0.00000000E+00  0.00000000E+00
  0.00000000E+00  0.00000000E+00  0.00000000E+00
  0.00000000E+00  0.00000000E+00  0.00000000E+00
  0.00000000E+00  0.00000000E+00  0.00000000E+00
  0.00000000E+00  0.00000000E+00  0.00000000E+00
  0.00000000E+00  0.00000000E+00  0.00000000E+00
  0.00000000E+00  0.00000000E+00  0.00000000E+00
  0.00000000E+00  0.00000000E+00  0.00000000E+00
  0.00000000E+00  0.00000000E+00  0.00000000E+00
  0.00000000E+00  0.00000000E+00  0.00000000E+00
  0.00000000E+00  0.00000000E+00  0.00000000E+00
  0.00000000E+00  0.00000000E+00  0.00000000E+00
  0.00000000E+00  0.00000000E+00  0.00000000E+00
  0.00000000E+00  0.00000000E+00  0.00000000E+00
  0.00000000E+00  0.00000000E+00  0.00000000E+00
  0.00000000E+00  0.00000000E+00  0.00000000E+00
  0.00000000E+00  0.00000000E+00  0.00000000E+00
  0.00000000E+00  0.00000000E+00  0.00000000E+00
  0.00000000E+00  0.00000000E+00  0.00000000E+00
  0.00000000E+00  0.00000000E+00  0.00000000E+00
  0.00000000E+00  0.00000000E+00  0.00000000E+00
  0.00000000E+00  0.00000000E+00  0.00000000E+00
  0.00000000E+00  0.00000000E+00  0.00000000E+00
  0.00000000E+00  0.00000000E+00  0.00000000E+00
  0.00000000E+00  0.00000000E+00  0.00000000E+00
  0.00000000E+00  0.00000000E+00  0.00000000E+00
  0.00000000E+00  0.00000000E+00  0.00000000E+00
  0.00000000E+00  0.00000000E+00  0.00000000E+00
  0.00000000E+00  0.00000000E+00  0.00000000E+00
  0.00000000E+00  0.00000000E+00  0.00000000E+00
  0.00000000E+00  0.00000000E+00  0.00000000E+00
  0.00000000E+00  0.00000000E+00  0.00000000E+00
  0.00000000E+00  0.00000000E+00  0.00000000E+00
