POSCAR-clean                            
   1.00000000000000     
    14.8598008643513602    0.0015859829557352    0.0000000000000000
    -7.4299004321257414   12.7560967618499923    0.0000000000000000
     0.0000000000000000    0.0000000000000000   15.0000000000000000
   C    N    C    Cr
     1     1    68     1
Direct
  0.0005695054866205  0.0008458838266102  0.4977017236377564
  0.0557591383209381  0.1114158209713448  0.4977646195115277
  0.1680409686540840  0.0019014568072450  0.4975249204718630
  0.2225166241087482  0.1130908217302934  0.4982289935508555
  0.3342694921131211  0.0021815293766778  0.4977422833209659
  0.3896748255661074  0.1134305671656300  0.4983777366305649
  0.5000587798455777 -0.0001136688732980  0.4977301936290935
  0.5558660843190911  0.1113849762461448  0.4976495893699319
  0.6659568785471717  0.9979633540686523  0.4982492164032335
  0.7220526661149788  0.1092453938094964  0.4975395238503043
  0.8321208450889193  0.9977588251809897  0.4983914897335605
  0.8886090129916487  0.1089297203848554  0.4977251822008897
  0.9997502082024037  0.1650475490383604  0.4978154884462161
  0.0546727975965636  0.2759833433702932  0.4984800929596919
  0.1662276032499441  0.1675133680669131  0.4984106883515966
  0.2219250922835272  0.2789049565964978  0.5000642199848268
  0.3346094217843678  0.1703463820256460  0.4993727189400801
  0.3905864336435528  0.2813483539508614  0.5025336351644486
  0.5007832978091850  0.1681235288737263  0.4984167587005904
  0.5568538524224589  0.2796489136409927  0.5000520350955540
  0.6668402032698395  0.1655243899016184  0.4975241085104954
  0.7226094189001172  0.2766963797243921  0.4980362400114687
  0.8333127682272508  0.1650078246179011  0.4976067728987575
  0.8884582617219315  0.2762509646077896  0.4977532316843978
  0.9989752216275376  0.3315602736110391  0.4983130015947888
  0.0543868010872631  0.4434011468601525  0.4987821529060207
  0.1654386383900367  0.3330002377436658  0.4999972893720482
  0.2190762550223342  0.4437403080533266  0.5016675602744156
  0.3346329749365192  0.3370634538124883  0.5034565542302416
  0.3869572354031665  0.4479420198827656  0.5095577715899585
  0.5026375084972895  0.3378517487296059  0.5035843842985785
  0.5612677957557822  0.4485278112563065  0.5097767248300206
  0.6677098419102722  0.3328757381944869  0.4996563450252926
  0.7249826077368834  0.4439195413727129  0.5011997679220832
  0.8334436910478412  0.3322098297137324  0.4979112678052195
  0.8895952709013178  0.4437677100504464  0.4982598746780270
  0.0000123041220570  0.4996340586276754  0.4982920320638387
  0.0557660102956157  0.6113357924762425  0.4982810759716200
  0.1644458294404613  0.4997314210631389  0.5003065610274660
  0.2202505309405089  0.6111680169642171  0.5002993682467742
  0.3289601339362593  0.4990915595355435  0.5052102312720160
  0.3852615226272456  0.6117458305293256  0.5052260988412806
  0.6706184663405126  0.4993500124666965  0.5051678327679033
  0.7269285805641129  0.6119187983770105  0.5051855581229091
  0.8354293784453011  0.4998454684384201  0.4995510702158493
  0.8911678176238188  0.6113793921888797  0.4995492715439933
  0.0013240389898337  0.6675574519055117  0.4982443603339318
  0.0566674972107758  0.7792957059787862  0.4978982041140976
  0.1661242057702455  0.6672886736264927  0.4987668091150580
  0.2223100424697793  0.7789127152741210  0.4983180917874683
  0.3308401507766355  0.6670971996644870  0.5016862185023025
  0.3881323293734163  0.7782985062781449  0.5000110133076221
  0.4946497580161811  0.6625548876429186  0.5096134625863654
  0.5532380838654337  0.7733146020079802  0.5033824478616824
  0.6686493447380101  0.6630057796695518  0.5099502944410700
  0.7209900408387439  0.7737982796161474  0.5035535838471492
  0.8366444801755500  0.6673295304807525  0.5012073577367082
  0.8905792464686303  0.7785759100393562  0.4996509200819490
  0.0012648417870807  0.8350622078845732  0.4980237230631467
  0.0569614177199155  0.9466904618141697  0.4975211502935576
  0.1673638452162248  0.8347807235742577  0.4977454208344560
  0.2231903824146526  0.9464073811279077  0.4976104898113520
  0.3332608509187620  0.8344995802643362  0.4984960047600345
  0.3892221609927918  0.9457540851953756  0.4978262084332501
  0.4990074049688001  0.8315337018138113  0.5000506927082399
  0.5549851213353809  0.9431555510716479  0.4983718949796093
  0.6651286041546942  0.8297020533314307  0.5024740940079404
  0.7208268714685657  0.9411276636210452  0.4993780897030340
  0.8335810094245335  0.8321736235539390  0.5000313627253232
  0.8892443640493216  0.9441168734401496  0.4984468115804754
  0.5279654710526971  0.5556959481951895  0.5544780147384435
 
  0.00000000E+00  0.00000000E+00  0.00000000E+00
  0.00000000E+00  0.00000000E+00  0.00000000E+00
  0.00000000E+00  0.00000000E+00  0.00000000E+00
  0.00000000E+00  0.00000000E+00  0.00000000E+00
  0.00000000E+00  0.00000000E+00  0.00000000E+00
  0.00000000E+00  0.00000000E+00  0.00000000E+00
  0.00000000E+00  0.00000000E+00  0.00000000E+00
  0.00000000E+00  0.00000000E+00  0.00000000E+00
  0.00000000E+00  0.00000000E+00  0.00000000E+00
  0.00000000E+00  0.00000000E+00  0.00000000E+00
  0.00000000E+00  0.00000000E+00  0.00000000E+00
  0.00000000E+00  0.00000000E+00  0.00000000E+00
  0.00000000E+00  0.00000000E+00  0.00000000E+00
  0.00000000E+00  0.00000000E+00  0.00000000E+00
  0.00000000E+00  0.00000000E+00  0.00000000E+00
  0.00000000E+00  0.00000000E+00  0.00000000E+00
  0.00000000E+00  0.00000000E+00  0.00000000E+00
  0.00000000E+00  0.00000000E+00  0.00000000E+00
  0.00000000E+00  0.00000000E+00  0.00000000E+00
  0.00000000E+00  0.00000000E+00  0.00000000E+00
  0.00000000E+00  0.00000000E+00  0.00000000E+00
  0.00000000E+00  0.00000000E+00  0.00000000E+00
  0.00000000E+00  0.00000000E+00  0.00000000E+00
  0.00000000E+00  0.00000000E+00  0.00000000E+00
  0.00000000E+00  0.00000000E+00  0.00000000E+00
  0.00000000E+00  0.00000000E+00  0.00000000E+00
  0.00000000E+00  0.00000000E+00  0.00000000E+00
  0.00000000E+00  0.00000000E+00  0.00000000E+00
  0.00000000E+00  0.00000000E+00  0.00000000E+00
  0.00000000E+00  0.00000000E+00  0.00000000E+00
  0.00000000E+00  0.00000000E+00  0.00000000E+00
  0.00000000E+00  0.00000000E+00  0.00000000E+00
  0.00000000E+00  0.00000000E+00  0.00000000E+00
  0.00000000E+00  0.00000000E+00  0.00000000E+00
  0.00000000E+00  0.00000000E+00  0.00000000E+00
  0.00000000E+00  0.00000000E+00  0.00000000E+00
  0.00000000E+00  0.00000000E+00  0.00000000E+00
  0.00000000E+00  0.00000000E+00  0.00000000E+00
  0.00000000E+00  0.00000000E+00  0.00000000E+00
  0.00000000E+00  0.00000000E+00  0.00000000E+00
  0.00000000E+00  0.00000000E+00  0.00000000E+00
  0.00000000E+00  0.00000000E+00  0.00000000E+00
  0.00000000E+00  0.00000000E+00  0.00000000E+00
  0.00000000E+00  0.00000000E+00  0.00000000E+00
  0.00000000E+00  0.00000000E+00  0.00000000E+00
  0.00000000E+00  0.00000000E+00  0.00000000E+00
  0.00000000E+00  0.00000000E+00  0.00000000E+00
  0.00000000E+00  0.00000000E+00  0.00000000E+00
  0.00000000E+00  0.00000000E+00  0.00000000E+00
  0.00000000E+00  0.00000000E+00  0.00000000E+00
  0.00000000E+00  0.00000000E+00  0.00000000E+00
  0.00000000E+00  0.00000000E+00  0.00000000E+00
  0.00000000E+00  0.00000000E+00  0.00000000E+00
  0.00000000E+00  0.00000000E+00  0.00000000E+00
  0.00000000E+00  0.00000000E+00  0.00000000E+00
  0.00000000E+00  0.00000000E+00  0.00000000E+00
  0.00000000E+00  0.00000000E+00  0.00000000E+00
  0.00000000E+00  0.00000000E+00  0.00000000E+00
  0.00000000E+00  0.00000000E+00  0.00000000E+00
  0.00000000E+00  0.00000000E+00  0.00000000E+00
  0.00000000E+00  0.00000000E+00  0.00000000E+00
  0.00000000E+00  0.00000000E+00  0.00000000E+00
  0.00000000E+00  0.00000000E+00  0.00000000E+00
  0.00000000E+00  0.00000000E+00  0.00000000E+00
  0.00000000E+00  0.00000000E+00  0.00000000E+00
  0.00000000E+00  0.00000000E+00  0.00000000E+00
  0.00000000E+00  0.00000000E+00  0.00000000E+00
  0.00000000E+00  0.00000000E+00  0.00000000E+00
  0.00000000E+00  0.00000000E+00  0.00000000E+00
  0.00000000E+00  0.00000000E+00  0.00000000E+00
  0.00000000E+00  0.00000000E+00  0.00000000E+00
