POSCAR-clean                            
   1.00000000000000     
    14.8408194831008267    0.0016245414959561    0.0000000000000000
    -7.4204097415005412   12.7517140135859695    0.0000000000000000
     0.0000000000000000    0.0000000000000000   15.0000000000000000
   C    N    C    Cr
    21     1    48     1
Direct
  0.9999287149754466  0.9998125990586146  0.4976645198370732
  0.0558370174288143  0.1114482597215201  0.4977512806047457
  0.1678900612764096  0.0018552870627460  0.4975048210716224
  0.2236131378675026  0.1133244990005835  0.4982899653259594
  0.3343882762254325  0.0017374059420590  0.4976095535250452
  0.3902818160728430  0.1133689876977399  0.4983129495017096
  0.5008088102817895  0.0003968583897986  0.4977584183133814
  0.5565269595955086  0.1123957445996808  0.4976693049242868
  0.6657825323209892  0.9985966322074376  0.4983448572990810
  0.7217971105972366  0.1103803168228410  0.4975999544073205
  0.8322182964411907  0.9979414295790575  0.4983694627382533
  0.8879467429849939  0.1095652217229954  0.4976372661129389
  0.9993070273178617  0.1658522253691643  0.4977265113618898
  0.0543378204502218  0.2769775435671917  0.4984735797541617
  0.1676099213567213  0.1682180275148184  0.4984917677083089
  0.2234515655591949  0.2798542006360662  0.5001950599603759
  0.3353901579842073  0.1701683594328074  0.4993699584827311
  0.3912790502664407  0.2813188968277701  0.5022976830395861
  0.5007637386620942  0.1680743148089050  0.4983358966627804
  0.5575388635197385  0.2796610241903821  0.5000387566125964
  0.6671658708840625  0.1667408621539437  0.4976400325811668
  0.7225347129584064  0.2769147927468865  0.4982161044046549
  0.8328084278349693  0.1650883930836287  0.4975705428901591
  0.8874378251368354  0.2762908679339589  0.4976841846094189
  0.9987642515348867  0.3325004674080603  0.4981999074979697
  0.0545472778075577  0.4438754008211774  0.4986642441775686
  0.1657223879672145  0.3330904403678048  0.5002527036156437
  0.2198904667592246  0.4440549189450991  0.5022585445776926
  0.3360388676127144  0.3379192586458970  0.5030693452389555
  0.3891149573955772  0.4488434360742986  0.5083831918877239
  0.5033280835091888  0.3382571424365040  0.5035464888500201
  0.5605484694689054  0.4491163280772667  0.5097030750318438
  0.6681438713983638  0.3325178619636730  0.4998878783479058
  0.7246839486950734  0.4432678035965125  0.5015077166996774
  0.8322906794344717  0.3318806867131983  0.4979472959604294
  0.8884288952642123  0.4431587638972160  0.4982283255527236
  0.9995817077829231  0.4992096095493536  0.4980660331889695
  0.0554287028341349  0.6108669451092510  0.4980514997172137
  0.1649995855758490  0.4998484619341070  0.5005730306561346
  0.2206965800624659  0.6112405015663711  0.5005660997656278
  0.3300164724666245  0.4995218590416429  0.5053931466250959
  0.3861381340383616  0.6117972827416551  0.5054814778504735
  0.6697596190834503  0.4986483812211660  0.5054011777771236
  0.7257543002322607  0.6111805414690038  0.5052752068711824
  0.8352264176785411  0.4999924455703919  0.4997332793162527
  0.8906384633388741  0.6110593829185900  0.4997786607406240
  0.0010670392937442  0.6670737920185985  0.4982081178046371
  0.0564343988665712  0.7786203762767200  0.4978646581913466
  0.1662575291287638  0.6670143557622980  0.4986251609438312
  0.2225206995401265  0.7787936984309524  0.4981666028958927
  0.3315298760827759  0.6671855195557228  0.5022863823841064
  0.3884050810582949  0.7782184716817112  0.5002623510626448
  0.4959287082380754  0.6626296555044746  0.5086992096489382
  0.5534900757928867  0.7735336984759583  0.5030760267744370
  0.6663118719195610  0.6614265701350632  0.5091848338102736
  0.7197847016520170  0.7729048691614864  0.5033428010483405
  0.8357039130284177  0.6669156644053659  0.5015728282159203
  0.8898867488556234  0.7779592929753250  0.4998630925958594
  0.0010427231533470  0.8341277761015108  0.4980922383406749
  0.0565340865281669  0.9455270488473532  0.4975171072725714
  0.1675376520668550  0.8345998905124928  0.4976201738135800
  0.2232917631786364  0.9460731201765141  0.4975261179634174
  0.3335402403108673  0.8344075844538423  0.4984504657474531
  0.3895794980183851  0.9458415325991111  0.4977148411671450
  0.4992411389446615  0.8315395088435835  0.5001900338263710
  0.5551370834786198  0.9434020466285843  0.4985216317209478
  0.6652044743616655  0.8301542892815590  0.5022334027819112
  0.7207741667617283  0.9416261164260860  0.4994015146540676
  0.8321202058279198  0.8311088922476557  0.5001134713740640
  0.8880473373597226  0.9429500473981350  0.4984459057391887
  0.5264625497296861  0.5557554140906261  0.5551602475595629
 
  0.00000000E+00  0.00000000E+00  0.00000000E+00
  0.00000000E+00  0.00000000E+00  0.00000000E+00
  0.00000000E+00  0.00000000E+00  0.00000000E+00
  0.00000000E+00  0.00000000E+00  0.00000000E+00
  0.00000000E+00  0.00000000E+00  0.00000000E+00
  0.00000000E+00  0.00000000E+00  0.00000000E+00
  0.00000000E+00  0.00000000E+00  0.00000000E+00
  0.00000000E+00  0.00000000E+00  0.00000000E+00
  0.00000000E+00  0.00000000E+00  0.00000000E+00
  0.00000000E+00  0.00000000E+00  0.00000000E+00
  0.00000000E+00  0.00000000E+00  0.00000000E+00
  0.00000000E+00  0.00000000E+00  0.00000000E+00
  0.00000000E+00  0.00000000E+00  0.00000000E+00
  0.00000000E+00  0.00000000E+00  0.00000000E+00
  0.00000000E+00  0.00000000E+00  0.00000000E+00
  0.00000000E+00  0.00000000E+00  0.00000000E+00
  0.00000000E+00  0.00000000E+00  0.00000000E+00
  0.00000000E+00  0.00000000E+00  0.00000000E+00
  0.00000000E+00  0.00000000E+00  0.00000000E+00
  0.00000000E+00  0.00000000E+00  0.00000000E+00
  0.00000000E+00  0.00000000E+00  0.00000000E+00
  0.00000000E+00  0.00000000E+00  0.00000000E+00
  0.00000000E+00  0.00000000E+00  0.00000000E+00
  0.00000000E+00  0.00000000E+00  0.00000000E+00
  0.00000000E+00  0.00000000E+00  0.00000000E+00
  0.00000000E+00  0.00000000E+00  0.00000000E+00
  0.00000000E+00  0.00000000E+00  0.00000000E+00
  0.00000000E+00  0.00000000E+00  0.00000000E+00
  0.00000000E+00  0.00000000E+00  0.00000000E+00
  0.00000000E+00  0.00000000E+00  0.00000000E+00
  0.00000000E+00  0.00000000E+00  0.00000000E+00
  0.00000000E+00  0.00000000E+00  0.00000000E+00
  0.00000000E+00  0.00000000E+00  0.00000000E+00
  0.00000000E+00  0.00000000E+00  0.00000000E+00
  0.00000000E+00  0.00000000E+00  0.00000000E+00
  0.00000000E+00  0.00000000E+00  0.00000000E+00
  0.00000000E+00  0.00000000E+00  0.00000000E+00
  0.00000000E+00  0.00000000E+00  0.00000000E+00
  0.00000000E+00  0.00000000E+00  0.00000000E+00
  0.00000000E+00  0.00000000E+00  0.00000000E+00
  0.00000000E+00  0.00000000E+00  0.00000000E+00
  0.00000000E+00  0.00000000E+00  0.00000000E+00
  0.00000000E+00  0.00000000E+00  0.00000000E+00
  0.00000000E+00  0.00000000E+00  0.00000000E+00
  0.00000000E+00  0.00000000E+00  0.00000000E+00
  0.00000000E+00  0.00000000E+00  0.00000000E+00
  0.00000000E+00  0.00000000E+00  0.00000000E+00
  0.00000000E+00  0.00000000E+00  0.00000000E+00
  0.00000000E+00  0.00000000E+00  0.00000000E+00
  0.00000000E+00  0.00000000E+00  0.00000000E+00
  0.00000000E+00  0.00000000E+00  0.00000000E+00
  0.00000000E+00  0.00000000E+00  0.00000000E+00
  0.00000000E+00  0.00000000E+00  0.00000000E+00
  0.00000000E+00  0.00000000E+00  0.00000000E+00
  0.00000000E+00  0.00000000E+00  0.00000000E+00
  0.00000000E+00  0.00000000E+00  0.00000000E+00
  0.00000000E+00  0.00000000E+00  0.00000000E+00
  0.00000000E+00  0.00000000E+00  0.00000000E+00
  0.00000000E+00  0.00000000E+00  0.00000000E+00
  0.00000000E+00  0.00000000E+00  0.00000000E+00
  0.00000000E+00  0.00000000E+00  0.00000000E+00
  0.00000000E+00  0.00000000E+00  0.00000000E+00
  0.00000000E+00  0.00000000E+00  0.00000000E+00
  0.00000000E+00  0.00000000E+00  0.00000000E+00
  0.00000000E+00  0.00000000E+00  0.00000000E+00
  0.00000000E+00  0.00000000E+00  0.00000000E+00
  0.00000000E+00  0.00000000E+00  0.00000000E+00
  0.00000000E+00  0.00000000E+00  0.00000000E+00
  0.00000000E+00  0.00000000E+00  0.00000000E+00
  0.00000000E+00  0.00000000E+00  0.00000000E+00
  0.00000000E+00  0.00000000E+00  0.00000000E+00
