POSCAR-clean                            
   1.00000000000000     
    14.8605368174274712    0.0000118240276070    0.0000000000000000
    -7.4302684086637942   12.7563493949658771    0.0000000000000000
     0.0000000000000000    0.0000000000000000   15.0000000000000000
   C    N    C    Cr
    36     1    33     1
Direct
  0.0000280045690351  0.9998071677780922  0.4976269305393850
  0.0558378099874034  0.1115880404336541  0.4977010950137530
  0.1679474060611422  0.0018716665070650  0.4975410073973831
  0.2235904531803677  0.1133623749328910  0.4982548541638120
  0.3341689764246410  0.0018638867712481  0.4977151661781367
  0.3900179655518652  0.1133520539512591  0.4983621706834862
  0.5000200358633050  0.9997969921763944  0.4977094297266025
  0.5559898246742752  0.1115773733241566  0.4976278122354438
  0.6658403205538695  0.9979532613034056  0.4982710985089894
  0.7216165504650053  0.1093836599417547  0.4975386910675083
  0.8323705449319360  0.9979636097112784  0.4983734430537005
  0.8880195389451109  0.1093918701975373  0.4977101024305386
  0.9991938199349614  0.1659481752796045  0.4977802135212390
  0.0545331847986359  0.2774309781266020  0.4984415661785833
  0.1674588524425859  0.1682686072152659  0.4984004648299695
  0.2231715725113241  0.2799628586963749  0.5001594457960477
  0.3351530129859980  0.1700494738452069  0.4993255254554788
  0.3909513736653101  0.2816369575172465  0.5024101107541162
  0.5010547329232651  0.1682602861035655  0.4984200317268307
  0.5570407372983008  0.2799642500975754  0.5001078140059292
  0.6669966126266833  0.1659387133000109  0.4975160909451529
  0.7231344399658842  0.2774200380837823  0.4980247261456157
  0.8326636286282506  0.1650836136902815  0.4975696775274219
  0.8882801585619097  0.2763213368806258  0.4976950752003799
  0.9988487379990436  0.3330020353592957  0.4982623632497554
  0.0539888906483789  0.4444423902791975  0.4987854594108135
  0.1653096790638632  0.3330458253238393  0.5000348691489055
  0.2187426981299623  0.4439298144226448  0.5018697002476088
  0.3356669159213567  0.3380978780209725  0.5034038483528183
  0.3882350305876678  0.4490463221046166  0.5092908277475562
  0.5027099102515600  0.3381320298338394  0.5035286152826871
  0.5611096825882049  0.4490960258235220  0.5095483694416388
  0.6679755312106532  0.3330375842095474  0.4996860035936063
  0.7254226382968454  0.4439272927744137  0.5013989387864460
  0.8343901718417410  0.3329975311347436  0.4979172513513021
  0.8906884449174275  0.4444417024654695  0.4983717988732162
  0.9999671893810277  0.4997022064635010  0.4983071422090619
  0.0552875508701462  0.6103422033906116  0.4981775685754307
  0.1640210876103138  0.5000935674648139  0.5003492892068065
  0.2206711307113014  0.6114358148515044  0.5003339526931602
  0.3289246788340153  0.4994294021135308  0.5054344139751596
  0.3853964157821484  0.6115780565445552  0.5054202033622679
  0.6707753697566851  0.4994300684835116  0.5053382030020678
  0.7264490130264351  0.6115746821453226  0.5053240745167660
  0.8363081790243745  0.5000959546534368  0.4997003377543250
  0.8909975834950056  0.6114317925249523  0.4996725009324738
  0.0010563869327331  0.6663327502617311  0.4981987237885239
  0.0568095286643100  0.7783350702429715  0.4978711648261118
  0.1655126151225406  0.6663331412065828  0.4986472899200053
  0.2217639620149546  0.7783322261960489  0.4982320460413531
  0.3308620571577575  0.6671102548291588  0.5019049583009986
  0.3880104707078559  0.7782770512676727  0.5000593672601777
  0.4949587607296105  0.6620114546946990  0.5091339617118704
  0.5531637994255724  0.7730528267850755  0.5033845381251142
  0.6672991183643501  0.6619593613782706  0.5093889402481607
  0.7201325538403516  0.7730171510642788  0.5035071778585968
  0.8364863318326043  0.6671106258373419  0.5014278603717981
  0.8905137100099662  0.7782839521072644  0.4997078547635053
  0.0014199129816099  0.8340858805412357  0.4980367435054620
  0.0566933476544329  0.9454622999087741  0.4975278753569681
  0.1673659856677276  0.8344918921593397  0.4976918828668696
  0.2231967586302775  0.9461511099473828  0.4975853858458407
  0.3329057777272423  0.8340782602358227  0.4984560823814509
  0.3890118608274274  0.9454539489452761  0.4977964349721818
  0.4988331576395352  0.8312880653520045  0.5001688317556494
  0.5548235862726255  0.9430453327598360  0.4984144894122003
  0.6649423904452859  0.8296177467794340  0.5024366591470574
  0.7207404990357091  0.9412243673113355  0.4993616751094078
  0.8327029004703244  0.8312842271444404  0.5001123838120665
  0.8884742812150325  0.9430528430913527  0.4984254457586557
  0.5275743202478687  0.5553206358295245  0.5547439310738800
 
  0.00000000E+00  0.00000000E+00  0.00000000E+00
  0.00000000E+00  0.00000000E+00  0.00000000E+00
  0.00000000E+00  0.00000000E+00  0.00000000E+00
  0.00000000E+00  0.00000000E+00  0.00000000E+00
  0.00000000E+00  0.00000000E+00  0.00000000E+00
  0.00000000E+00  0.00000000E+00  0.00000000E+00
  0.00000000E+00  0.00000000E+00  0.00000000E+00
  0.00000000E+00  0.00000000E+00  0.00000000E+00
  0.00000000E+00  0.00000000E+00  0.00000000E+00
  0.00000000E+00  0.00000000E+00  0.00000000E+00
  0.00000000E+00  0.00000000E+00  0.00000000E+00
  0.00000000E+00  0.00000000E+00  0.00000000E+00
  0.00000000E+00  0.00000000E+00  0.00000000E+00
  0.00000000E+00  0.00000000E+00  0.00000000E+00
  0.00000000E+00  0.00000000E+00  0.00000000E+00
  0.00000000E+00  0.00000000E+00  0.00000000E+00
  0.00000000E+00  0.00000000E+00  0.00000000E+00
  0.00000000E+00  0.00000000E+00  0.00000000E+00
  0.00000000E+00  0.00000000E+00  0.00000000E+00
  0.00000000E+00  0.00000000E+00  0.00000000E+00
  0.00000000E+00  0.00000000E+00  0.00000000E+00
  0.00000000E+00  0.00000000E+00  0.00000000E+00
  0.00000000E+00  0.00000000E+00  0.00000000E+00
  0.00000000E+00  0.00000000E+00  0.00000000E+00
  0.00000000E+00  0.00000000E+00  0.00000000E+00
  0.00000000E+00  0.00000000E+00  0.00000000E+00
  0.00000000E+00  0.00000000E+00  0.00000000E+00
  0.00000000E+00  0.00000000E+00  0.00000000E+00
  0.00000000E+00  0.00000000E+00  0.00000000E+00
  0.00000000E+00  0.00000000E+00  0.00000000E+00
  0.00000000E+00  0.00000000E+00  0.00000000E+00
  0.00000000E+00  0.00000000E+00  0.00000000E+00
  0.00000000E+00  0.00000000E+00  0.00000000E+00
  0.00000000E+00  0.00000000E+00  0.00000000E+00
  0.00000000E+00  0.00000000E+00  0.00000000E+00
  0.00000000E+00  0.00000000E+00  0.00000000E+00
  0.00000000E+00  0.00000000E+00  0.00000000E+00
  0.00000000E+00  0.00000000E+00  0.00000000E+00
  0.00000000E+00  0.00000000E+00  0.00000000E+00
  0.00000000E+00  0.00000000E+00  0.00000000E+00
  0.00000000E+00  0.00000000E+00  0.00000000E+00
  0.00000000E+00  0.00000000E+00  0.00000000E+00
  0.00000000E+00  0.00000000E+00  0.00000000E+00
  0.00000000E+00  0.00000000E+00  0.00000000E+00
  0.00000000E+00  0.00000000E+00  0.00000000E+00
  0.00000000E+00  0.00000000E+00  0.00000000E+00
  0.00000000E+00  0.00000000E+00  0.00000000E+00
  0.00000000E+00  0.00000000E+00  0.00000000E+00
  0.00000000E+00  0.00000000E+00  0.00000000E+00
  0.00000000E+00  0.00000000E+00  0.00000000E+00
  0.00000000E+00  0.00000000E+00  0.00000000E+00
  0.00000000E+00  0.00000000E+00  0.00000000E+00
  0.00000000E+00  0.00000000E+00  0.00000000E+00
  0.00000000E+00  0.00000000E+00  0.00000000E+00
  0.00000000E+00  0.00000000E+00  0.00000000E+00
  0.00000000E+00  0.00000000E+00  0.00000000E+00
  0.00000000E+00  0.00000000E+00  0.00000000E+00
  0.00000000E+00  0.00000000E+00  0.00000000E+00
  0.00000000E+00  0.00000000E+00  0.00000000E+00
  0.00000000E+00  0.00000000E+00  0.00000000E+00
  0.00000000E+00  0.00000000E+00  0.00000000E+00
  0.00000000E+00  0.00000000E+00  0.00000000E+00
  0.00000000E+00  0.00000000E+00  0.00000000E+00
  0.00000000E+00  0.00000000E+00  0.00000000E+00
  0.00000000E+00  0.00000000E+00  0.00000000E+00
  0.00000000E+00  0.00000000E+00  0.00000000E+00
  0.00000000E+00  0.00000000E+00  0.00000000E+00
  0.00000000E+00  0.00000000E+00  0.00000000E+00
  0.00000000E+00  0.00000000E+00  0.00000000E+00
  0.00000000E+00  0.00000000E+00  0.00000000E+00
  0.00000000E+00  0.00000000E+00  0.00000000E+00
