POSCAR-clean                            
   1.0000000000000000     
    14.8578806982000007   -0.0001736021000000    0.0000000000000000
    -7.4289403491000003   12.7559991905000008    0.0000000000000000
     0.0000000000000000    0.0000000000000000   15.0000000000000000
   C    N    C    Cr   C    O 
     9     1    60     1     1     1
Direct
 -0.0009878314036718 -0.0001633130519258  0.4920916580479903
  0.0545507646074976  0.1113215236208816  0.4921127064420943
  0.1672616270615658  0.0020930423158382  0.4916331072190330
  0.2230540156289382  0.1134749217410051  0.4923041262173690
  0.3340685854153866  0.0025105956236823  0.4921923828410081
  0.3900387952839668  0.1138586654326820  0.4947972928568154
  0.4997677230475102  0.0012059433826186  0.4903471192344909
  0.5563285180033573  0.1125198954484259  0.4932969485211069
  0.6663639562690726  0.0003690016460667  0.4895086124257118
  0.7215855914882072  0.1106272689558626  0.4914724770158756
  0.8321890262841696  0.9987214090720745  0.4923852910826787
  0.8867938943059251  0.1100024264956287  0.4921943184426382
  0.9984974881448232  0.1664151957019903  0.4925100783041209
  0.0543456622186979  0.2774980141521777  0.4930401024939826
  0.1662343382290569  0.1677049296794048  0.4919818528066333
  0.2220644080912745  0.2790329926444930  0.4911695613511601
  0.3348483865159900  0.1700627897510471  0.4949591608540836
  0.3906861372785044  0.2814881885889609  0.4977968081846729
  0.5013458694867479  0.1695562532443376  0.4960884569345247
  0.5565456858361344  0.2810496953461801  0.5003607944714369
  0.6670398325927188  0.1663872338526910  0.4935890343129404
  0.7224260200260281  0.2773221900374854  0.4961050882201040
  0.8314900206254339  0.1656300105749045  0.4922891433912149
  0.8873238233218426  0.2769347870316650  0.4933104894015206
  0.9987523824771261  0.3326874724000223  0.4934398363878693
  0.0545602375918543  0.4444349749149921  0.4932685899429179
  0.1654812808958482  0.3335079577700396  0.4925345116800999
  0.2203146961477999  0.4447793281445404  0.4931223470930746
  0.3340946563717656  0.3360586634032358  0.4917489145496473
  0.3873418484484364  0.4462114843438748  0.4900124370956968
  0.5023098622963388  0.3395538878345134  0.5045890237761047
  0.5593878486258940  0.4513001904278348  0.5143448326452396
  0.6671691289420171  0.3332245668655149  0.5000416473795120
  0.7238141356747574  0.4447355808430767  0.5020271951932139
  0.8334549559031494  0.3336425587065571  0.4946946833353120
  0.8892968200985263  0.4447203861552248  0.4947473966379385
 -0.0000079139308989  0.5004912165886641  0.4930305538990304
  0.0556435213392704  0.6119071418332486  0.4920573368885747
  0.1652608221953186  0.5004811063337631  0.4934022617920640
  0.2211659928284276  0.6121033165508684  0.4919327174409826
  0.3308308904771527  0.5002119509459173  0.4884801052594217
  0.3873233272901083  0.6130716741416155  0.4860249168442322
  0.6698625818185805  0.5004228281418972  0.5084476024374595
  0.7252549733165731  0.6119232421572471  0.5069285538894915
  0.8346831667715797  0.5005393218686255  0.4975942953153809
  0.8901492784686081  0.6116748540741501  0.4965152622394719
  0.0006753499038139  0.6675950507691880  0.4929697750921080
  0.0560205337734999  0.7791268251658016  0.4919581698568941
  0.1664367189014645  0.6678300585526921  0.4910216527672158
  0.2224079120078516  0.7793796009379327  0.4901162452422254
  0.3319271771214293  0.6681209087529613  0.4895523129617533
  0.3887231840708698  0.7794407664189303  0.4874224931268797
  0.4975328548000360  0.6663659215144881  0.4822286831691777
  0.5541692204409565  0.7765850790196696  0.4853009475617117
  0.6644647758961199  0.6615907834276158  0.5115658709220126
  0.7186142604111254  0.7731363924581514  0.5001952160403235
  0.8348307012551506  0.6672632250741000  0.4994843850100559
  0.8891334913789662  0.7783756907639220  0.4965171003907880
  0.0001923733629358  0.8344875295960774  0.4930329423577095
  0.0557600340914573  0.9458098991626679  0.4918288167644612
  0.1670539027236820  0.8351111334049085  0.4907480020532017
  0.2228823584899785  0.9466815089731041  0.4914118468196534
  0.3334562694319763  0.8350874285209623  0.4890272868507885
  0.3892738399806006  0.9464911187822681  0.4902859009383098
  0.5001509023902270  0.8342040559305409  0.4856804475053955
  0.5557943807858983  0.9459851991496393  0.4881215376059004
  0.6651586289052889  0.8317716343207853  0.4923347503993780
  0.7210049387542946  0.9433393633099589  0.4911598312871974
  0.8310384032220128  0.8312832646114484  0.4965074335263429
  0.8873095294981677  0.9432232403799051  0.4931202630059540
  0.5130983307314759  0.5573333039410051  0.5403163674714899
  0.5185395869763432  0.5133433661312852  0.6590889997022505
  0.5220224281714669  0.4894687693561450  0.7324810888948953

  0.00000000E+00  0.00000000E+00  0.00000000E+00
  0.00000000E+00  0.00000000E+00  0.00000000E+00
  0.00000000E+00  0.00000000E+00  0.00000000E+00
  0.00000000E+00  0.00000000E+00  0.00000000E+00
  0.00000000E+00  0.00000000E+00  0.00000000E+00
  0.00000000E+00  0.00000000E+00  0.00000000E+00
  0.00000000E+00  0.00000000E+00  0.00000000E+00
  0.00000000E+00  0.00000000E+00  0.00000000E+00
  0.00000000E+00  0.00000000E+00  0.00000000E+00
  0.00000000E+00  0.00000000E+00  0.00000000E+00
  0.00000000E+00  0.00000000E+00  0.00000000E+00
  0.00000000E+00  0.00000000E+00  0.00000000E+00
  0.00000000E+00  0.00000000E+00  0.00000000E+00
  0.00000000E+00  0.00000000E+00  0.00000000E+00
  0.00000000E+00  0.00000000E+00  0.00000000E+00
  0.00000000E+00  0.00000000E+00  0.00000000E+00
  0.00000000E+00  0.00000000E+00  0.00000000E+00
  0.00000000E+00  0.00000000E+00  0.00000000E+00
  0.00000000E+00  0.00000000E+00  0.00000000E+00
  0.00000000E+00  0.00000000E+00  0.00000000E+00
  0.00000000E+00  0.00000000E+00  0.00000000E+00
  0.00000000E+00  0.00000000E+00  0.00000000E+00
  0.00000000E+00  0.00000000E+00  0.00000000E+00
  0.00000000E+00  0.00000000E+00  0.00000000E+00
  0.00000000E+00  0.00000000E+00  0.00000000E+00
  0.00000000E+00  0.00000000E+00  0.00000000E+00
  0.00000000E+00  0.00000000E+00  0.00000000E+00
  0.00000000E+00  0.00000000E+00  0.00000000E+00
  0.00000000E+00  0.00000000E+00  0.00000000E+00
  0.00000000E+00  0.00000000E+00  0.00000000E+00
  0.00000000E+00  0.00000000E+00  0.00000000E+00
  0.00000000E+00  0.00000000E+00  0.00000000E+00
  0.00000000E+00  0.00000000E+00  0.00000000E+00
  0.00000000E+00  0.00000000E+00  0.00000000E+00
  0.00000000E+00  0.00000000E+00  0.00000000E+00
  0.00000000E+00  0.00000000E+00  0.00000000E+00
  0.00000000E+00  0.00000000E+00  0.00000000E+00
  0.00000000E+00  0.00000000E+00  0.00000000E+00
  0.00000000E+00  0.00000000E+00  0.00000000E+00
  0.00000000E+00  0.00000000E+00  0.00000000E+00
  0.00000000E+00  0.00000000E+00  0.00000000E+00
  0.00000000E+00  0.00000000E+00  0.00000000E+00
  0.00000000E+00  0.00000000E+00  0.00000000E+00
  0.00000000E+00  0.00000000E+00  0.00000000E+00
  0.00000000E+00  0.00000000E+00  0.00000000E+00
  0.00000000E+00  0.00000000E+00  0.00000000E+00
  0.00000000E+00  0.00000000E+00  0.00000000E+00
  0.00000000E+00  0.00000000E+00  0.00000000E+00
  0.00000000E+00  0.00000000E+00  0.00000000E+00
  0.00000000E+00  0.00000000E+00  0.00000000E+00
  0.00000000E+00  0.00000000E+00  0.00000000E+00
  0.00000000E+00  0.00000000E+00  0.00000000E+00
  0.00000000E+00  0.00000000E+00  0.00000000E+00
  0.00000000E+00  0.00000000E+00  0.00000000E+00
  0.00000000E+00  0.00000000E+00  0.00000000E+00
  0.00000000E+00  0.00000000E+00  0.00000000E+00
  0.00000000E+00  0.00000000E+00  0.00000000E+00
  0.00000000E+00  0.00000000E+00  0.00000000E+00
  0.00000000E+00  0.00000000E+00  0.00000000E+00
  0.00000000E+00  0.00000000E+00  0.00000000E+00
  0.00000000E+00  0.00000000E+00  0.00000000E+00
  0.00000000E+00  0.00000000E+00  0.00000000E+00
  0.00000000E+00  0.00000000E+00  0.00000000E+00
  0.00000000E+00  0.00000000E+00  0.00000000E+00
  0.00000000E+00  0.00000000E+00  0.00000000E+00
  0.00000000E+00  0.00000000E+00  0.00000000E+00
  0.00000000E+00  0.00000000E+00  0.00000000E+00
  0.00000000E+00  0.00000000E+00  0.00000000E+00
  0.00000000E+00  0.00000000E+00  0.00000000E+00
  0.00000000E+00  0.00000000E+00  0.00000000E+00
  0.00000000E+00  0.00000000E+00  0.00000000E+00
  0.00000000E+00  0.00000000E+00  0.00000000E+00
  0.00000000E+00  0.00000000E+00  0.00000000E+00
