POSCAR-c3n4
0.8
+13.8434242346  -0.1907404740  +0.0000000000 
 -6.9217121174 +11.6951909939  +0.0000000000 
 +0.0000000000  +0.0000000000 +15.0000000000 
C N Ge
 24 32 1
Cartesian
 -0.0149534066  +2.4769891554  +6.3969622740 
 +1.2206073451  +4.6076052329  +6.4973716980 
 -1.2748902218  +4.5620640663  +6.4093105620 
 +5.7506808922  +0.6612841331  +7.5854064870 
 +3.4880543574  +4.6063553697  +6.1878819045 
 +1.1858997874  +0.5954256003  +6.7302198210 
 -3.5934096387  +8.3075480293  +7.2585190755 
 -2.2245325413 +10.3552292050  +7.5180183390 
 -4.6828519457 +10.4507017210  +7.4718803745 
 +2.4058454244  +6.3266954371  +7.5285571170 
 +0.0394112230 +10.2676395571  +7.3345500795 
 -2.5491802681  +6.3234371289  +7.2100678005 
 +6.9865645411  +2.4896475991  +7.0905676065 
 +8.1038847101  +4.4085915022  +5.9982407880 
 +5.7203206549  +4.4952637194  +6.5319241905 
+12.6441339140  +0.4324292710  +6.9105030300 
+10.3473242340  +4.3410960104  +5.9082004785 
 +8.1675290702  +0.6481928627  +7.6804751565 
 +3.5665748784  +8.2004714627  +7.9687316640 
 +4.7235456933 +10.3431224429  +7.8432015795 
 +2.2592693015 +10.3215100290  +7.8199053330 
 +9.0937862697  +6.4034777797  +6.3076431075 
 +6.9701756675 +10.3637382575  +8.0199677070 
 +4.7618326573  +6.3682889142  +7.3479039960 
 -0.0143545899  +3.8913851712  +6.3754252200 
 +1.1663688332  +1.8511557542  +6.3142808805 
 +4.6425652415  -0.0430099494  +7.8323648505 
 +4.6447862542  +4.0245746302  +5.8857920205 
 +2.2750909497  +4.1532361166  +5.8462931025 
 +5.7767220953  +1.9705011011  +7.3972754685 
 -4.6427719793 +11.5271337967  +6.6998481435 
 +0.0168260121  +0.0213869775  +7.2426271980 
 -3.4717785011  +9.6853226633  +7.5038934420 
 -2.6112404649  +7.5209719922  +7.7668196535 
 +1.2200524639  +5.6805851381  +7.3732592895 
 +1.2112002572  +9.6202252249  +7.3458512235 
 -1.1295054931  +9.6356154515  +7.1906058420 
 +2.4226806500  +7.4836748111  +8.1725062800 
 -1.3855384310  +5.6293009823  +7.2767415285 
+10.2499101978  +5.6117700653  +6.5398196550 
 +6.9533792998  +3.7339184889  +6.4397655255 
 +8.1771848393  +1.9523433611  +7.4285656410 
 +4.6249414916 +11.3763069806  +7.0177378155 
 -2.2575552407  +4.0690022757  +5.6820366015 
 +9.2113741695  +3.7029417659  +5.6929291620 
+12.6314649188  +1.6937471511  +6.5269631310 
 +9.2231181554  -0.0662462615  +8.0922137445 
 +6.9619585121  -0.0508772127  +7.4746373955 
 +3.4908331673  +9.6061589951  +8.0129879085 
 +4.7428573248  +7.6545012503  +7.6869698760 
 +8.0122898217  +5.7668743313  +5.9361994455 
 -5.6848528816  +9.9729164739  +8.2301581875 
 +5.8067784991  +9.8907843407  +8.4907451880 
 -4.6291049666  +7.9199208049  +6.5183215575 
 +5.8404375510  +5.6182614068  +7.2573112080 
 +3.5267159812  +5.7721550817  +7.0074187080 
 -0.1339422181  +6.8791707283  +8.3669217465 
