POSCAR-c3n4                             
   1.0800000000000001     
    13.8434242346000005   -0.1907404740000000    0.0000000000000000
    -6.9217121174000003   11.6951909939000007    0.0000000000000000
     0.0000000000000000    0.0000000000000000   15.0000000000000018
   C    N    Ge   C    O 
    24    32     1     1     1
Direct
  0.1070172917941932  0.2128523468218191  0.4855425021860924
  0.2870645536181868  0.3921196403126075  0.4857191147339037
  0.1034369402303170  0.3918225484749698  0.4855423928171589
  0.4460967593227423  0.0561744549072003  0.4980337889523341
  0.4431199387874614  0.3870128223263691  0.4779734367907764
  0.1096274733742106  0.0554491188619650  0.4852425298513694
  0.1062201358801005  0.7143556218240548  0.4956676523364933
  0.2884205796302979  0.8930334889608247  0.4932976346389211
  0.1029584554846750  0.8946698867801572  0.4982509057957074
  0.4511076918168442  0.5555336905811643  0.4984081667887708
  0.4443385398772364  0.8895550918321291  0.4832410057471961
  0.1042565216800426  0.5545851961809731  0.5019293664600255
  0.6074545513170690  0.2153777492282600  0.4929731433611693
  0.7878222000105666  0.3922007129056624  0.4768612534340519
  0.6038511305385086  0.3944056173961883  0.4775118190610357
  0.9461018436122899  0.0550574680549545  0.4911144591641659
  0.9418505026572674  0.3858107984118249  0.4749968315159947
  0.6113016757188490  0.0583943398595679  0.4996761884149237
  0.6105320187025427  0.7157911632116125  0.4930793825015556
  0.7893142998075859  0.8936900455689170  0.5011848793777034
  0.6048236994980982  0.8962284175725870  0.4942103227082200
  0.9444547315666298  0.5557953181927928  0.4831768428718419
  0.9431155865998235  0.8877008873126613  0.5098366077490653
  0.6134883064458663  0.5582752413449086  0.4807547875664611
  0.1668141909899248  0.3332864936578090  0.4854527812446605
  0.1607848951211537  0.1621774231826478  0.4805054890137015
  0.3399067723611680  0.9983369089940339  0.5049223493453994
  0.4977386552812106  0.3376991455684788  0.4722161792074289
  0.3374299175046076  0.3404438622776311  0.4737844315317901
  0.5015451945189966  0.1626982893489810  0.4974763721391469
  0.1586212002351886  0.9990369893733870  0.4819507365178382
  0.9993442083658479  0.9985554663147482  0.4935999345175546
  0.1671382685743907  0.8324127840421411  0.4960788664401790
  0.1574923929613590  0.6605466242373197  0.5118512433659745
  0.3428052963740029  0.5023559092949839  0.5000114656237145
  0.4992834897200851  0.8386325947495195  0.4805028894989789
  0.3380184275837337  0.8375810703618995  0.4788803531840671
  0.5044440306628033  0.6614971735613722  0.5069332161529161
  0.1589816084495084  0.5015768954217492  0.5032805189768084
  0.9980748090866598  0.4987346779556887  0.4909053547958990
  0.6663898381141635  0.3323771353320382  0.4816149920022994
  0.6617860528760815  0.1646876542515585  0.5013945823693291
  0.8402991680145036  0.9989070079004847  0.4888160235456880
  0.0011107381459468  0.3397772300541604  0.4698880894048045
  0.8374326737277826  0.3368996477178499  0.4669651669196426
  0.0021321967115071  0.1620419228391299  0.4904213310139980
  0.6601911698034328  0.0013749584620015  0.5056689322382297
  0.5004053453710497  0.0006467208566363  0.4914601957131666
  0.6681657532174157  0.8339443277846073  0.4964545895346859
  0.6625893166948771  0.6662833419415364  0.4763457941959643
  0.8404044420624004  0.5002594357956198  0.4799974415037624
  0.9997525013740756  0.8386841156034990  0.5167379588440184
  0.8375286864506322  0.8384349189142952  0.5182100953731066
  0.0038266188308924  0.6636829533894897  0.4790800427803532
  0.6613102013253993  0.5028091436700493  0.4768393187097146
  0.5017949719543253  0.5007876260818520  0.4895672965738314
  0.3143630841918466  0.6262776682953657  0.5283870557131891
  0.2968141332219290  0.5984373301898103  0.7434446843957261
  0.2276256037426734  0.5275453972987094  0.7761292126608481

  0.00000000E+00  0.00000000E+00  0.00000000E+00
  0.00000000E+00  0.00000000E+00  0.00000000E+00
  0.00000000E+00  0.00000000E+00  0.00000000E+00
  0.00000000E+00  0.00000000E+00  0.00000000E+00
  0.00000000E+00  0.00000000E+00  0.00000000E+00
  0.00000000E+00  0.00000000E+00  0.00000000E+00
  0.00000000E+00  0.00000000E+00  0.00000000E+00
  0.00000000E+00  0.00000000E+00  0.00000000E+00
  0.00000000E+00  0.00000000E+00  0.00000000E+00
  0.00000000E+00  0.00000000E+00  0.00000000E+00
  0.00000000E+00  0.00000000E+00  0.00000000E+00
  0.00000000E+00  0.00000000E+00  0.00000000E+00
  0.00000000E+00  0.00000000E+00  0.00000000E+00
  0.00000000E+00  0.00000000E+00  0.00000000E+00
  0.00000000E+00  0.00000000E+00  0.00000000E+00
  0.00000000E+00  0.00000000E+00  0.00000000E+00
  0.00000000E+00  0.00000000E+00  0.00000000E+00
  0.00000000E+00  0.00000000E+00  0.00000000E+00
  0.00000000E+00  0.00000000E+00  0.00000000E+00
  0.00000000E+00  0.00000000E+00  0.00000000E+00
  0.00000000E+00  0.00000000E+00  0.00000000E+00
  0.00000000E+00  0.00000000E+00  0.00000000E+00
  0.00000000E+00  0.00000000E+00  0.00000000E+00
  0.00000000E+00  0.00000000E+00  0.00000000E+00
  0.00000000E+00  0.00000000E+00  0.00000000E+00
  0.00000000E+00  0.00000000E+00  0.00000000E+00
  0.00000000E+00  0.00000000E+00  0.00000000E+00
  0.00000000E+00  0.00000000E+00  0.00000000E+00
  0.00000000E+00  0.00000000E+00  0.00000000E+00
  0.00000000E+00  0.00000000E+00  0.00000000E+00
  0.00000000E+00  0.00000000E+00  0.00000000E+00
  0.00000000E+00  0.00000000E+00  0.00000000E+00
  0.00000000E+00  0.00000000E+00  0.00000000E+00
  0.00000000E+00  0.00000000E+00  0.00000000E+00
  0.00000000E+00  0.00000000E+00  0.00000000E+00
  0.00000000E+00  0.00000000E+00  0.00000000E+00
  0.00000000E+00  0.00000000E+00  0.00000000E+00
  0.00000000E+00  0.00000000E+00  0.00000000E+00
  0.00000000E+00  0.00000000E+00  0.00000000E+00
  0.00000000E+00  0.00000000E+00  0.00000000E+00
  0.00000000E+00  0.00000000E+00  0.00000000E+00
  0.00000000E+00  0.00000000E+00  0.00000000E+00
  0.00000000E+00  0.00000000E+00  0.00000000E+00
  0.00000000E+00  0.00000000E+00  0.00000000E+00
  0.00000000E+00  0.00000000E+00  0.00000000E+00
  0.00000000E+00  0.00000000E+00  0.00000000E+00
  0.00000000E+00  0.00000000E+00  0.00000000E+00
  0.00000000E+00  0.00000000E+00  0.00000000E+00
  0.00000000E+00  0.00000000E+00  0.00000000E+00
  0.00000000E+00  0.00000000E+00  0.00000000E+00
  0.00000000E+00  0.00000000E+00  0.00000000E+00
  0.00000000E+00  0.00000000E+00  0.00000000E+00
  0.00000000E+00  0.00000000E+00  0.00000000E+00
  0.00000000E+00  0.00000000E+00  0.00000000E+00
  0.00000000E+00  0.00000000E+00  0.00000000E+00
  0.00000000E+00  0.00000000E+00  0.00000000E+00
  0.00000000E+00  0.00000000E+00  0.00000000E+00
  0.00000000E+00  0.00000000E+00  0.00000000E+00
  0.00000000E+00  0.00000000E+00  0.00000000E+00
