POSCAR-clean
1.0
14.9005570072 -0.0604177925 0.0
-7.4502785036 12.7875044807 0.0
0.0 0.0 15.0
C N C Cr C O
52 1 17 1 1 1
Cartesian
7.4469388757 12.7229473287 7.2604665971
0.0006684122 1.4202882687 7.2624431168
2.4813534818 0.0206315004 7.2522952404
2.4837950411 1.4454947139 7.2652493819
4.9590365534 0.0131634099 7.2555636111
4.9675845632 1.4332889293 7.2655905107
7.4458951852 -0.0285682442 7.2501314857
7.4552245016 1.3877516095 7.2449230347
2.4852823502 12.7102742727 7.2711289858
9.9439057571 1.3455879466 7.2562620487
4.9615707173 12.6938964918 7.2709807307
12.4184196376 1.3325382794 7.255847344
13.6574526674 2.0542454349 7.2585903999
-1.2431377843 3.5390215781 7.2700831959
1.2421142207 2.1459079816 7.2739431382
1.2448224442 3.5737721732 7.2936342915
3.7285939549 2.1671660168 7.2871431572
3.7387573961 3.5859802443 7.3505024357
6.2189520753 2.1139188568 7.2570585803
6.2319761652 3.5329484938 7.2967123347
8.7093307036 2.0676267983 7.2493561924
8.7198986031 3.4859424065 7.2548251673
11.1847174493 2.0512597927 7.2557139031
11.1878799255 3.4730810448 7.2576929394
12.4223160433 4.1869602536 7.2671149175
-2.4884072453 5.6724689829 7.275216429
-0.0067379716 4.2619122025 7.293060221
-0.0359675594 5.6823088049 7.3161681288
2.4859149703 4.3148119685 7.3248318182
2.4307596048 5.7337377367 7.3511119972
5.0052511621 4.2762147899 7.4080021422
5.0677990183 5.6755442137 7.5810829656
7.4895675352 4.2041217089 7.2801460517
7.5163335216 5.6189810403 7.2957512284
9.9569681747 4.1900458793 7.2558413814
9.9611184555 5.6159553638 7.256945444
-3.7152068642 6.3917197237 7.2650742322
-3.7238095191 7.814010601 7.2656627787
-1.268281536 6.388131079 7.2954467206
-1.28016474 7.8103166304 7.2822004692
1.1914488393 6.3977415323 7.3481821028
1.1638502135 7.8449305451 7.3822417479
6.3026795761 6.3222932372 7.405401491
6.2900005069 7.7613386218 7.3555309579
8.7414393648 6.3327855027 7.2658819267
8.7327604955 7.7565361494 7.277706631
-4.9497267973 8.5316868741 7.2674761282
-4.9659710164 9.9572169484 7.261876296
-2.4997107042 8.5285382933 7.2657849215
-2.5009755425 9.9526958859 7.2615864422
-0.0592110987 8.5315529546 7.3048440655
-0.0395910167 9.9450334016 7.2913739831
2.3516053958 8.4970598483 7.4991936506
2.4294823454 9.8579526989 7.3847276952
5.0435428899 8.4079586283 7.3794100811
4.9666483067 9.8194867709 7.3315800315
7.5045651144 8.4731939266 7.2983361181
7.4641337979 9.8895937174 7.2817158547
-6.2015487768 10.6680516471 7.2617823372
-6.2069375043 12.0890484972 7.2546280145
-3.7334971832 10.6709556027 7.2575428771
-3.7323364403 12.0929206269 7.2547580148
-1.2684234614 10.6613638406 7.2651837041
-1.2567544268 12.0792109057 7.2552636272
1.2141973156 10.6161472786 7.3015679813
1.2336368701 12.034082095 7.2659836683
3.7070885881 10.5379110398 7.3465057095
3.716161906 11.9663985033 7.2932476681
6.2072756881 10.5700336438 7.2933943493
6.2051211517 11.9965962766 7.2747822578
3.72290795 7.0699263853 8.0257925779
3.72290795 7.0699263853 14.0057925779
3.4018940034 6.3440826926 14.8511297616