POSCAR-clean                            
   1.00000000000000     
    14.8571429462999998    0.0074808514000000    0.0000000000000000
    -7.4285714730999999   12.7495032626999993    0.0000000000000000
     0.0000000000000000    0.0000000000000000   15.0000000000000000
   C    N    C    Cr   C    O 
     8     1    61     1     1     1
Direct
  0.9990078804043698 -0.0002029590080634  0.4916860073619503
  0.0551256220125011  0.1112424611894820  0.4921360864250443
  0.1674918878478669  0.0018995500671304  0.4914163537514191
  0.2233132207714613  0.1132857494238211  0.4924010154289992
  0.3345536507856976  0.0024967555603619  0.4924069834495919
  0.3899904101840044  0.1136686879782162  0.4949188664579847
  0.5013085166700131  0.0017480509982210  0.4907115946232917
  0.5558638220893918  0.1131564213468274  0.4933303025713344
  0.6663452324249962  0.9996090323874919  0.4891900785353643
  0.7215861600635779  0.1099232146547419  0.4909350610049412
  0.8318694439968678  0.9993414637187312  0.4917797492390495
  0.8881539276667351  0.1102328828761789  0.4915408914112485
  0.9992056306686554  0.1661712113890504  0.4922244343816274
  0.0549023685864272  0.2777521125638179  0.4930071753439412
  0.1667888608560853  0.1677843843249004  0.4923007970831293
  0.2224859765841745  0.2791214043913128  0.4916723440701944
  0.3348561394024150  0.1698461322285093  0.4948756925653290
  0.3907959173854104  0.2814948627215065  0.4976199572825664
  0.5011666977300059  0.1695495634739389  0.4959814319169931
  0.5569326832589555  0.2815548566434635  0.4997077010255603
  0.6666289717215942  0.1661417903882707  0.4930577183831838
  0.7225861766249804  0.2776829746084014  0.4954549947325596
  0.8319937898579610  0.1652208085356069  0.4917162516993356
  0.8879399484882204  0.2772852060410077  0.4932668308847899
  0.9992984621069168  0.3331419263174332  0.4935662045358518
  0.0550801871455913  0.4446810484638362  0.4938604976459705
  0.1658199461292290  0.3337049478552148  0.4928989091538274
  0.2207351761032539  0.4450988805174728  0.4937594362620401
  0.3344011355161028  0.3360232026422156  0.4924779479199103
  0.3880057451039053  0.4465266127271872  0.4928055056241675
  0.5025998839532397  0.3398052724488783  0.5040661493279520
  0.5596080002799716  0.4513884652584459  0.5139052878709867
  0.6674633970385581  0.3338208367686914  0.4992021246512316
  0.7239026708590852  0.4451733391189349  0.5013303101948602
  0.8334868626663459  0.3333761475036653  0.4946345377356703
  0.8896006452502820  0.4450503097447667  0.4950580306627226
  0.0002086100990879  0.5006511731705987  0.4938372931672058
  0.0559418527322959  0.6122580639278609  0.4927903545915751
  0.1659022072233875  0.5007743184294684  0.4940556164673066
  0.2216949544660595  0.6124095909369520  0.4928773652753840
  0.3313393079488963  0.5006551267557179  0.4899194424794062
  0.3876193121587707  0.6130910905039746  0.4868279854522277
  0.6698140912607539  0.5007668286175773  0.5077649064664647
  0.7253343194685823  0.6124005106345713  0.5055107737289469
  0.8348197242880878  0.5007801110974603  0.4973576409687131
  0.8903609461927022  0.6118611372116708  0.4963910865769021
  0.0009155374535855  0.6677785451615662  0.4932200215570881
  0.0563723205137279  0.7793160805589487  0.4917968245560758
  0.1668339652973349  0.6681646949299609  0.4916800960690808
  0.2226349329426422  0.7795187921129986  0.4904484836057811
  0.3324539748591903  0.6685255567886746  0.4906911075502328
  0.3891489732305143  0.7799670907738231  0.4879897946328258
  0.4982440070524561  0.6667403594016840  0.4816413832010514
  0.5542288854657761  0.7762385739640516  0.4850275084854183
  0.6648284273576583  0.6623381601276543  0.5091691419498596
  0.7190009335757150  0.7737677464816507  0.4990588736691809
  0.8351050297672672  0.6675431221260223  0.4986054525769632
  0.8893261494816335  0.7785576205018434  0.4954620976725387
  0.0004525259685912  0.8344900529214876  0.4922241062214771
  0.0558175958886118  0.9455247793801610  0.4912035937142107
  0.1672745540791261  0.8351279040863346  0.4908952936820016
  0.2231651384696680  0.9466281506706058  0.4914877459064761
  0.3339008433922666  0.8353243932684786  0.4892673171318763
  0.3900542018945599  0.9464382792629089  0.4905265970296835
  0.5008223450158995  0.8346403074427118  0.4859665157765520
  0.5563649752337837  0.9454846445573160  0.4884213923633698
  0.6654250400993297  0.8325081123158271  0.4922573189954024
  0.7203984693568519  0.9431190284727636  0.4910462382657386
  0.8314213191145264  0.8315960190202084  0.4955555692988327
  0.8870865858766978  0.9431559904239248  0.4925083516507009
  0.5133037334865440  0.5582491452164523  0.5414170529707851
  0.5101052038779882  0.5084814629174160  0.6603459715440118
  0.5095923542714084  0.4829676562609087  0.7338504236473781
 
  0.00000000E+00  0.00000000E+00  0.00000000E+00
  0.00000000E+00  0.00000000E+00  0.00000000E+00
  0.00000000E+00  0.00000000E+00  0.00000000E+00
  0.00000000E+00  0.00000000E+00  0.00000000E+00
  0.00000000E+00  0.00000000E+00  0.00000000E+00
  0.00000000E+00  0.00000000E+00  0.00000000E+00
  0.00000000E+00  0.00000000E+00  0.00000000E+00
  0.00000000E+00  0.00000000E+00  0.00000000E+00
  0.00000000E+00  0.00000000E+00  0.00000000E+00
  0.00000000E+00  0.00000000E+00  0.00000000E+00
  0.00000000E+00  0.00000000E+00  0.00000000E+00
  0.00000000E+00  0.00000000E+00  0.00000000E+00
  0.00000000E+00  0.00000000E+00  0.00000000E+00
  0.00000000E+00  0.00000000E+00  0.00000000E+00
  0.00000000E+00  0.00000000E+00  0.00000000E+00
  0.00000000E+00  0.00000000E+00  0.00000000E+00
  0.00000000E+00  0.00000000E+00  0.00000000E+00
  0.00000000E+00  0.00000000E+00  0.00000000E+00
  0.00000000E+00  0.00000000E+00  0.00000000E+00
  0.00000000E+00  0.00000000E+00  0.00000000E+00
  0.00000000E+00  0.00000000E+00  0.00000000E+00
  0.00000000E+00  0.00000000E+00  0.00000000E+00
  0.00000000E+00  0.00000000E+00  0.00000000E+00
  0.00000000E+00  0.00000000E+00  0.00000000E+00
  0.00000000E+00  0.00000000E+00  0.00000000E+00
  0.00000000E+00  0.00000000E+00  0.00000000E+00
  0.00000000E+00  0.00000000E+00  0.00000000E+00
  0.00000000E+00  0.00000000E+00  0.00000000E+00
  0.00000000E+00  0.00000000E+00  0.00000000E+00
  0.00000000E+00  0.00000000E+00  0.00000000E+00
  0.00000000E+00  0.00000000E+00  0.00000000E+00
  0.00000000E+00  0.00000000E+00  0.00000000E+00
  0.00000000E+00  0.00000000E+00  0.00000000E+00
  0.00000000E+00  0.00000000E+00  0.00000000E+00
  0.00000000E+00  0.00000000E+00  0.00000000E+00
  0.00000000E+00  0.00000000E+00  0.00000000E+00
  0.00000000E+00  0.00000000E+00  0.00000000E+00
  0.00000000E+00  0.00000000E+00  0.00000000E+00
  0.00000000E+00  0.00000000E+00  0.00000000E+00
  0.00000000E+00  0.00000000E+00  0.00000000E+00
  0.00000000E+00  0.00000000E+00  0.00000000E+00
  0.00000000E+00  0.00000000E+00  0.00000000E+00
  0.00000000E+00  0.00000000E+00  0.00000000E+00
  0.00000000E+00  0.00000000E+00  0.00000000E+00
  0.00000000E+00  0.00000000E+00  0.00000000E+00
  0.00000000E+00  0.00000000E+00  0.00000000E+00
  0.00000000E+00  0.00000000E+00  0.00000000E+00
  0.00000000E+00  0.00000000E+00  0.00000000E+00
  0.00000000E+00  0.00000000E+00  0.00000000E+00
  0.00000000E+00  0.00000000E+00  0.00000000E+00
  0.00000000E+00  0.00000000E+00  0.00000000E+00
  0.00000000E+00  0.00000000E+00  0.00000000E+00
  0.00000000E+00  0.00000000E+00  0.00000000E+00
  0.00000000E+00  0.00000000E+00  0.00000000E+00
  0.00000000E+00  0.00000000E+00  0.00000000E+00
  0.00000000E+00  0.00000000E+00  0.00000000E+00
  0.00000000E+00  0.00000000E+00  0.00000000E+00
  0.00000000E+00  0.00000000E+00  0.00000000E+00
  0.00000000E+00  0.00000000E+00  0.00000000E+00
  0.00000000E+00  0.00000000E+00  0.00000000E+00
  0.00000000E+00  0.00000000E+00  0.00000000E+00
  0.00000000E+00  0.00000000E+00  0.00000000E+00
  0.00000000E+00  0.00000000E+00  0.00000000E+00
  0.00000000E+00  0.00000000E+00  0.00000000E+00
  0.00000000E+00  0.00000000E+00  0.00000000E+00
  0.00000000E+00  0.00000000E+00  0.00000000E+00
  0.00000000E+00  0.00000000E+00  0.00000000E+00
  0.00000000E+00  0.00000000E+00  0.00000000E+00
  0.00000000E+00  0.00000000E+00  0.00000000E+00
  0.00000000E+00  0.00000000E+00  0.00000000E+00
  0.00000000E+00  0.00000000E+00  0.00000000E+00
  0.00000000E+00  0.00000000E+00  0.00000000E+00
  0.00000000E+00  0.00000000E+00  0.00000000E+00
