POSCAR-clean                            
   1.00000000000000     
    14.8591925695497409   -0.0097938459989895    0.0000000000000000
    -7.4295962847249353   12.7626307388120264    0.0000000000000000
     0.0000000000000000    0.0000000000000000   15.0000000000000000
   C    N    C    Cr
    64     1     5     1
Direct
  0.0002543403976078  0.0004287373704049  0.4980856691244503
  0.0561580607492996  0.1119697351127700  0.4980462625926488
  0.1673880032433716  0.0014409413650302  0.4976153439841837
  0.2230081990944223  0.1128366535937011  0.4984208739248651
  0.3337705800190094  0.0010610013400742  0.4972753515268170
  0.3895621970718621  0.1125503328745022  0.4976598429515621
  0.4995064795934518  0.9983581284615143  0.4982448338100191
  0.5555346249865614  0.1101019949650190  0.4982774553812881
  0.6648363112963679  0.9972458095781054  0.4987229156128533
  0.7207371531715800  0.1090448241073155  0.4977850812639472
  0.8322102573514840  0.9984915950062587  0.4975769793657002
  0.8879914561686398  0.1100114048897417  0.4971967429717987
  0.9993514609431904  0.1662611062296577  0.4976391967214264
  0.0548913755490843  0.2774778218455035  0.4981256347169930
  0.1678630422911138  0.1686235334495489  0.4987322300405466
  0.2241122743514811  0.2807589636156194  0.5008869898305051
  0.3345393360741384  0.1691232999791499  0.4986803073041735
  0.3900665583954405  0.2802988288066888  0.5009536306804898
  0.5002418311158479  0.1665468005190969  0.4981844155104996
  0.5560119361600887  0.2780163755929344  0.4988938855569536
  0.6662209802305603  0.1653108371757567  0.4981886332384348
  0.7221565336817032  0.2768852605437480  0.4992858288728201
  0.8322988632881859  0.1651431323893398  0.4972679930466011
  0.8882151880444663  0.2766741686973193  0.4974367082305600
  0.9993381783908855  0.3327191588776074  0.4975972946614525
  0.0549498151418310  0.4444627156817115  0.4979524385358390
  0.1662280566407927  0.3336839644046057  0.5002287191418484
  0.2205301919801040  0.4446758006909885  0.5017802023315343
  0.3366953061533622  0.3392367504634453  0.5047101131024402
  0.3910949305722237  0.4508943690121411  0.5124429083072286
  0.5010755567957895  0.3347537837612038  0.4990511418946809
  0.5580098602039744  0.4452248098704424  0.5023222664771166
  0.6671486887715303  0.3326976429477846  0.5011833549386995
  0.7237272163611325  0.4437826175247223  0.5051896459288976
  0.8330204459785994  0.3325384101056157  0.4987714147657594
  0.8889374111114063  0.4440139075606388  0.4998387596535678
 -0.0000821427979125  0.5000211533823451  0.4983182476330714
  0.0554883230480658  0.6113364545972730  0.4982227051170035
  0.1655665594600397  0.5005402861046737  0.4994789877835487
  0.2211311906854633  0.6119009687688655  0.4994367383497531
  0.3305773708958638  0.5001436727115023  0.5074341549279501
  0.3860986964103443  0.6118693963243177  0.5080514735063860
  0.6682812276215915  0.4991263810960501  0.5049695850301115
  0.7246057881775400  0.6119344371566953  0.5044053332092313
  0.8343499885810387  0.4997810745567290  0.5034934077028916
  0.8900719141904978  0.6113780657945200  0.5032330977835670
  0.0005071122742456  0.6671621667411831  0.4995340106040342
  0.0560624093286297  0.7785432772356283  0.4983731466517852
  0.1662982961577369  0.6671316863774162  0.4979033406147448
  0.2226719441722544  0.7784370966960064  0.4976184190134469
  0.3325458313210923  0.6677493213827885  0.5018581309712875
  0.3892963608653308  0.7785331913839881  0.5003678094090606
  0.4956073075545295  0.6624274437026533  0.5145573784262661
  0.5521727139112561  0.7727727389641417  0.5061409070490627
  0.6676864260505989  0.6653435880682286  0.5014999514467682
  0.7203545779642692  0.7756665132902861  0.4989462467303846
  0.8353191732003967  0.6672381007516982  0.5044821598141268
  0.8894741697302164  0.7782424304694584  0.5004854726345960
  0.0006305995678365  0.8341107660151288  0.4987792692843042
  0.0561633134957034  0.9454530299877407  0.4979229846940217
  0.1673828671222775  0.8342915297675559  0.4973093140630928
  0.2226866977890374  0.9455255983740165  0.4972175926071679
  0.3339758693255994  0.8341360993004184  0.4982766130422513
  0.3886953801642762  0.9451140559294433  0.4978004989121773
  0.4986692615902021  0.8312081546764477  0.5012263169702382
  0.5542243213647386  0.9418045814560914  0.4990817260380229
  0.6644251090544258  0.8311491886439820  0.5013917657982323
  0.7208096889887640  0.9419191263431596  0.4988945212894007
  0.8326022911004026  0.8326281784665017  0.4985397593158215
  0.8884916716232747  0.9439121136206046  0.4979891838846119
  0.5416951497567383  0.5553428155823138  0.5491686627056747
 
  0.00000000E+00  0.00000000E+00  0.00000000E+00
  0.00000000E+00  0.00000000E+00  0.00000000E+00
  0.00000000E+00  0.00000000E+00  0.00000000E+00
  0.00000000E+00  0.00000000E+00  0.00000000E+00
  0.00000000E+00  0.00000000E+00  0.00000000E+00
  0.00000000E+00  0.00000000E+00  0.00000000E+00
  0.00000000E+00  0.00000000E+00  0.00000000E+00
  0.00000000E+00  0.00000000E+00  0.00000000E+00
  0.00000000E+00  0.00000000E+00  0.00000000E+00
  0.00000000E+00  0.00000000E+00  0.00000000E+00
  0.00000000E+00  0.00000000E+00  0.00000000E+00
  0.00000000E+00  0.00000000E+00  0.00000000E+00
  0.00000000E+00  0.00000000E+00  0.00000000E+00
  0.00000000E+00  0.00000000E+00  0.00000000E+00
  0.00000000E+00  0.00000000E+00  0.00000000E+00
  0.00000000E+00  0.00000000E+00  0.00000000E+00
  0.00000000E+00  0.00000000E+00  0.00000000E+00
  0.00000000E+00  0.00000000E+00  0.00000000E+00
  0.00000000E+00  0.00000000E+00  0.00000000E+00
  0.00000000E+00  0.00000000E+00  0.00000000E+00
  0.00000000E+00  0.00000000E+00  0.00000000E+00
  0.00000000E+00  0.00000000E+00  0.00000000E+00
  0.00000000E+00  0.00000000E+00  0.00000000E+00
  0.00000000E+00  0.00000000E+00  0.00000000E+00
  0.00000000E+00  0.00000000E+00  0.00000000E+00
  0.00000000E+00  0.00000000E+00  0.00000000E+00
  0.00000000E+00  0.00000000E+00  0.00000000E+00
  0.00000000E+00  0.00000000E+00  0.00000000E+00
  0.00000000E+00  0.00000000E+00  0.00000000E+00
  0.00000000E+00  0.00000000E+00  0.00000000E+00
  0.00000000E+00  0.00000000E+00  0.00000000E+00
  0.00000000E+00  0.00000000E+00  0.00000000E+00
  0.00000000E+00  0.00000000E+00  0.00000000E+00
  0.00000000E+00  0.00000000E+00  0.00000000E+00
  0.00000000E+00  0.00000000E+00  0.00000000E+00
  0.00000000E+00  0.00000000E+00  0.00000000E+00
  0.00000000E+00  0.00000000E+00  0.00000000E+00
  0.00000000E+00  0.00000000E+00  0.00000000E+00
  0.00000000E+00  0.00000000E+00  0.00000000E+00
  0.00000000E+00  0.00000000E+00  0.00000000E+00
  0.00000000E+00  0.00000000E+00  0.00000000E+00
  0.00000000E+00  0.00000000E+00  0.00000000E+00
  0.00000000E+00  0.00000000E+00  0.00000000E+00
  0.00000000E+00  0.00000000E+00  0.00000000E+00
  0.00000000E+00  0.00000000E+00  0.00000000E+00
  0.00000000E+00  0.00000000E+00  0.00000000E+00
  0.00000000E+00  0.00000000E+00  0.00000000E+00
  0.00000000E+00  0.00000000E+00  0.00000000E+00
  0.00000000E+00  0.00000000E+00  0.00000000E+00
  0.00000000E+00  0.00000000E+00  0.00000000E+00
  0.00000000E+00  0.00000000E+00  0.00000000E+00
  0.00000000E+00  0.00000000E+00  0.00000000E+00
  0.00000000E+00  0.00000000E+00  0.00000000E+00
  0.00000000E+00  0.00000000E+00  0.00000000E+00
  0.00000000E+00  0.00000000E+00  0.00000000E+00
  0.00000000E+00  0.00000000E+00  0.00000000E+00
  0.00000000E+00  0.00000000E+00  0.00000000E+00
  0.00000000E+00  0.00000000E+00  0.00000000E+00
  0.00000000E+00  0.00000000E+00  0.00000000E+00
  0.00000000E+00  0.00000000E+00  0.00000000E+00
  0.00000000E+00  0.00000000E+00  0.00000000E+00
  0.00000000E+00  0.00000000E+00  0.00000000E+00
  0.00000000E+00  0.00000000E+00  0.00000000E+00
  0.00000000E+00  0.00000000E+00  0.00000000E+00
  0.00000000E+00  0.00000000E+00  0.00000000E+00
  0.00000000E+00  0.00000000E+00  0.00000000E+00
  0.00000000E+00  0.00000000E+00  0.00000000E+00
  0.00000000E+00  0.00000000E+00  0.00000000E+00
  0.00000000E+00  0.00000000E+00  0.00000000E+00
  0.00000000E+00  0.00000000E+00  0.00000000E+00
  0.00000000E+00  0.00000000E+00  0.00000000E+00
