POSCAR-c3n4                             
   1.0200000000000000     
    13.8434242346000005   -0.1907404740000000    0.0000000000000000
    -6.9217121174000003   11.6951909939000007    0.0000000000000000
     0.0000000000000000    0.0000000000000000   15.0000000000000000
   C    N    Ge   C    O 
    24    32     1     1     1
Direct
  0.1060891157930470  0.2143075286608180  0.4560706196086812
  0.2868824721911878  0.3954738604544801  0.4573223338709553
  0.1044242874025585  0.3918445303462974  0.4541155861274504
  0.4469800586767860  0.0624219199000322  0.5192500084178988
  0.4485671112889236  0.3933188351514971  0.4402205151051604
  0.1108226393057095  0.0536071252437438  0.4706415442421275
  0.1008013464181516  0.7144715656560194  0.4964803898642032
  0.2852432790182817  0.8924190499384395  0.5116652813810347
  0.1074086325175827  0.8943270587899477  0.5098208761427472
  0.4484225452742265  0.5488329433676924  0.5139120479885619
  0.4450451095635160  0.8873986827336395  0.4998432114423537
  0.0943072936527756  0.5477767129342865  0.4969540031380717
  0.6143603948837963  0.2215589333376897  0.4944565580971272
  0.7820498609278417  0.3903490371125855  0.4334330045394452
  0.6089880342573650  0.3931206109636278  0.4595677396039264
  0.9412555651679497  0.0537782763119239  0.4828252243638005
  0.9401604476008742  0.3847950330602998  0.4284050675974314
  0.6195272279562332  0.0633275520240630  0.5247768512022546
  0.6118391438557040  0.7127312744291672  0.5335069044263463
  0.7880232157126983  0.8950314623283973  0.5299976880951363
  0.6078001487239035  0.8926005799750172  0.5273247193678401
  0.9407346685552369  0.5611074787052885  0.4461536980682368
  0.9491132651635468  0.8947315602029207  0.5407350666883772
  0.6191878318494162  0.5554984716451798  0.5013792316681673
  0.1667266897797717  0.3351701851509432  0.4524059860949663
  0.1633919163217286  0.1622021551333148  0.4495941847884097
  0.3371899983164042  0.0017120572549487  0.5327813639808809
  0.5071416109417299  0.3451326893702458  0.4229557927549408
  0.3412103032621587  0.3519228680731885  0.4203103585740919
  0.5050783250198734  0.1738723383586773  0.5112155699929133
  0.1588171239214162  0.9920881838880646  0.4671843359239034
  0.0000484917554004  0.9995282467429831  0.4979626598867597
  0.1655802564583695  0.8329008576909160  0.5102085124273188
  0.1435242748308099  0.6527023682882955  0.5268672018982130
  0.3365010375002271  0.4945204157146605  0.5052772960469980
  0.5011804514331075  0.8331493834864148  0.4989801957776834
  0.3344381550067297  0.8335505505594227  0.4905432537011194
  0.5002920003146656  0.6519070124732522  0.5481507301489259
  0.1499798067514959  0.4920586278062444  0.5001080388156467
  0.9912476023234191  0.4967093665156739  0.4623694124355353
  0.6677291241673728  0.3315543955302971  0.4575962179376774
  0.6751478095177958  0.1749608381951191  0.5145589267804169
  0.8306219202029581  0.9910981808343919  0.4858684523678392
  0.0066685650921841  0.3433397559295273  0.4149512934975093
  0.8313241775976152  0.3304328081867922  0.4170901198625572
  0.9961802303055123  0.1633950123385972  0.4666316808640119
  0.6655143122010472  0.0027720813534415  0.5464480874316351
  0.5037049908067246  0.0036891083021260  0.5104750797707567
  0.6669072986355928  0.8323985890436774  0.5363500399661234
  0.6717594541549374  0.6667631785341754  0.5148337984800619
  0.8344962712692308  0.5045184066462127  0.4272475954084243
  0.0095589749092753  0.8460320373847168  0.5527273803088875
  0.8434032713115798  0.8505109792554606  0.5671380711934901
  0.0055344793484906  0.6743927333227830  0.4533993063724040
  0.6668017561523811  0.4952321032141995  0.4974609890022279
  0.5031281679990158  0.4979550818362100  0.4871326387487542
  0.3017932661469871  0.6118565549052803  0.5590148368934393
  0.2959406329536876  0.6001249631805052  0.7670765099225818
  0.2235248391259717  0.5203383138714273  0.7982259107689273

  0.00000000E+00  0.00000000E+00  0.00000000E+00
  0.00000000E+00  0.00000000E+00  0.00000000E+00
  0.00000000E+00  0.00000000E+00  0.00000000E+00
  0.00000000E+00  0.00000000E+00  0.00000000E+00
  0.00000000E+00  0.00000000E+00  0.00000000E+00
  0.00000000E+00  0.00000000E+00  0.00000000E+00
  0.00000000E+00  0.00000000E+00  0.00000000E+00
  0.00000000E+00  0.00000000E+00  0.00000000E+00
  0.00000000E+00  0.00000000E+00  0.00000000E+00
  0.00000000E+00  0.00000000E+00  0.00000000E+00
  0.00000000E+00  0.00000000E+00  0.00000000E+00
  0.00000000E+00  0.00000000E+00  0.00000000E+00
  0.00000000E+00  0.00000000E+00  0.00000000E+00
  0.00000000E+00  0.00000000E+00  0.00000000E+00
  0.00000000E+00  0.00000000E+00  0.00000000E+00
  0.00000000E+00  0.00000000E+00  0.00000000E+00
  0.00000000E+00  0.00000000E+00  0.00000000E+00
  0.00000000E+00  0.00000000E+00  0.00000000E+00
  0.00000000E+00  0.00000000E+00  0.00000000E+00
  0.00000000E+00  0.00000000E+00  0.00000000E+00
  0.00000000E+00  0.00000000E+00  0.00000000E+00
  0.00000000E+00  0.00000000E+00  0.00000000E+00
  0.00000000E+00  0.00000000E+00  0.00000000E+00
  0.00000000E+00  0.00000000E+00  0.00000000E+00
  0.00000000E+00  0.00000000E+00  0.00000000E+00
  0.00000000E+00  0.00000000E+00  0.00000000E+00
  0.00000000E+00  0.00000000E+00  0.00000000E+00
  0.00000000E+00  0.00000000E+00  0.00000000E+00
  0.00000000E+00  0.00000000E+00  0.00000000E+00
  0.00000000E+00  0.00000000E+00  0.00000000E+00
  0.00000000E+00  0.00000000E+00  0.00000000E+00
  0.00000000E+00  0.00000000E+00  0.00000000E+00
  0.00000000E+00  0.00000000E+00  0.00000000E+00
  0.00000000E+00  0.00000000E+00  0.00000000E+00
  0.00000000E+00  0.00000000E+00  0.00000000E+00
  0.00000000E+00  0.00000000E+00  0.00000000E+00
  0.00000000E+00  0.00000000E+00  0.00000000E+00
  0.00000000E+00  0.00000000E+00  0.00000000E+00
  0.00000000E+00  0.00000000E+00  0.00000000E+00
  0.00000000E+00  0.00000000E+00  0.00000000E+00
  0.00000000E+00  0.00000000E+00  0.00000000E+00
  0.00000000E+00  0.00000000E+00  0.00000000E+00
  0.00000000E+00  0.00000000E+00  0.00000000E+00
  0.00000000E+00  0.00000000E+00  0.00000000E+00
  0.00000000E+00  0.00000000E+00  0.00000000E+00
  0.00000000E+00  0.00000000E+00  0.00000000E+00
  0.00000000E+00  0.00000000E+00  0.00000000E+00
  0.00000000E+00  0.00000000E+00  0.00000000E+00
  0.00000000E+00  0.00000000E+00  0.00000000E+00
  0.00000000E+00  0.00000000E+00  0.00000000E+00
  0.00000000E+00  0.00000000E+00  0.00000000E+00
  0.00000000E+00  0.00000000E+00  0.00000000E+00
  0.00000000E+00  0.00000000E+00  0.00000000E+00
  0.00000000E+00  0.00000000E+00  0.00000000E+00
  0.00000000E+00  0.00000000E+00  0.00000000E+00
  0.00000000E+00  0.00000000E+00  0.00000000E+00
  0.00000000E+00  0.00000000E+00  0.00000000E+00
  0.00000000E+00  0.00000000E+00  0.00000000E+00
  0.00000000E+00  0.00000000E+00  0.00000000E+00
