POSCAR-clean
1.0
14.8591925695 -0.009793846 0.0
-7.4295962847 12.7626307388 0.0
0.0 0.0 15.0
C N C Cr C O
64 1 5 1 1 1
Cartesian
0.0005939474 0.0054693258 7.2627878211
0.002573511 1.4284783798 7.2621967231
2.4765449614 0.0167508302 7.255732944
2.4753909926 1.4379084357 7.2678158931
4.9516785109 0.0102722707 7.2506330571
4.9523761691 1.4326230258 7.2564004285
0.004865128 12.7367840491 7.2651752914
7.436782599 1.3997502848 7.2656646149
2.469797015 12.720968719 7.2723465184
9.8994131309 1.3846400354 7.2582790032
4.9475830278 12.7352289838 7.2551574747
12.3774957223 1.3953380861 7.2494539288
13.6143029057 2.1121416107 7.256090735
-1.2459066746 3.5408093807 7.263387305
1.2415044931 2.1504358665 7.2724862348
1.2442016888 3.5810280581 7.3048076317
3.7144665756 2.1551818002 7.2717073938
3.713566969 3.5735301968 7.3058072444
6.1958142095 2.1206760243 7.2642690169
6.1963389992 3.5427748458 7.2749110676
8.6713130574 2.1032763063 7.2643322828
8.6735172963 3.5267116475 7.2807902173
11.1403422822 2.0995094108 7.2505226799
11.1425831465 3.5223912073 7.2530534077
12.3773894082 4.2365844003 7.2554622041
-2.4856686563 5.6719753474 7.2607893622
-0.0091224381 4.2570572092 7.2949335713
-0.0268610867 5.673073204 7.3182058192
2.4826282905 4.3262558372 7.3621544807
2.4613917575 5.7507680104 7.4781464088
4.9584927222 4.2674314737 7.2772699126
4.9837353752 5.6767747815 7.3263367814
7.441481667 4.2395632131 7.3092531083
7.4568763893 5.6567456029 7.3693474731
9.9073850849 4.2359064607 7.2730740057
9.910048096 5.658079429 7.289084179
-3.7161758791 6.3815861467 7.2662764987
-3.7174713743 7.8017179831 7.264843361
-1.2586268599 6.3865893081 7.283687601
-1.2603462187 7.8073003883 7.2830538594
1.1962472407 6.3799113873 7.4030151081
1.1911722871 7.8052817745 7.4122748868
6.2218119452 6.3636206505 7.3660465597
6.2206311227 7.8027965803 7.3575827823
8.684595536 6.3703498095 7.3439038997
8.6834577675 7.7940752683 7.339999251
-4.9492102764 8.5147394104 7.2845129433
-4.9512201039 9.9357112949 7.267099984
-2.4854606919 8.5127266675 7.2600528934
-2.4747480632 9.9327244038 7.2557790694
-0.0197453315 8.5189811122 7.3193747488
0.0004422865 9.9323189309 7.2970199253
2.4427559472 8.4494629536 7.5098634606
2.4634512173 9.8572052179 7.3836163899
4.9780469308 8.4849953109 7.3140020559
4.940998347 9.8924902438 7.2756964852
7.4548587373 8.5075325074 7.3587351814
7.4348409036 9.9237093923 7.2987848737
-6.1877360478 10.6454415259 7.2731918235
-6.1897928284 12.0659178478 7.2603475546
-3.7112749945 10.6461154009 7.2511424951
-3.7159289477 12.0652131069 7.2497666733
-1.2346827084 10.6425001131 7.2656519798
-1.2461163738 12.0583348792 7.2585102679
1.2342815687 10.6035188553 7.3098975388
1.2380980986 12.0144761136 7.2777286748
3.6977177195 10.6011429063 7.3123792712
3.7125711331 12.0143064963 7.2749206035
6.185706556 10.6183716059 7.2695991739
6.1893829126 12.0381000054 7.2613405425
3.9231796248 7.0823300099 8.0290327248
3.9231796248 7.0823300099 14.0090327248
3.6021656782 6.3564863172 14.8543699085