POSCAR-c3n4                             
  0.92000000000000004     
    13.8434242346000005   -0.1907404740000000    0.0000000000000000
    -6.9217121174000003   11.6951909939000007    0.0000000000000000
     0.0000000000000000    0.0000000000000000   15.0000000000000000
   C    N    Ge   C    O 
    24    32     1     1     1
Direct
  0.1016997923231102  0.2066995696736882  0.4120723682804766
  0.2923334510467939  0.4100637203051463  0.4343290099889074
  0.0972237227932951  0.3902535210490328  0.4128397147167249
  0.4477282191855636  0.0599632956927962  0.5064959076235027
  0.4781366141368153  0.4412177957997869  0.4053118941107954
  0.1169049286562256  0.0517700365821767  0.4668441396134000
  0.0656859264069709  0.6970037473761295  0.5171590247462348
  0.2766773186967342  0.8712410706753317  0.5347615109093056
  0.1159443781129070  0.9022176712631804  0.5510959125842447
  0.4456879888588645  0.5409719884233084  0.5432034124920975
  0.4427103180585306  0.8644917418914702  0.5021619291529404
  0.0465813385242200  0.5144245834054999  0.4917640317472873
  0.6275834006525827  0.2232092701624353  0.4535422889756617
  0.7762149262829965  0.3991576278561269  0.3428870738977139
  0.6314990720859228  0.4119430088410709  0.4288110986676301
  0.9333171151816799  0.0506621473063262  0.4816417124600036
  0.9435114269363396  0.3992219452277510  0.3470460165985187
  0.6328520775135686  0.0637472555300889  0.5198527165242126
  0.6168838335784415  0.6987289041548550  0.6060695301105383
  0.7969866262615355  0.9069209078214797  0.5862054317460448
  0.6061568429496589  0.8825051986833898  0.5723690606043661
  0.9243453394049652  0.5748310261804264  0.4034772292452544
  0.9840616799944115  0.9485467522355862  0.6059014679942010
  0.6361219524339532  0.5513267381270666  0.5313693096395227
  0.1665963895890883  0.3349255516748642  0.4128709376013049
  0.1658443418000175  0.1503486309784492  0.4096176706158019
  0.3381407556841509  0.9951913154400316  0.5488709261304265
  0.5454141588615471  0.3998221160184059  0.3683808084138391
  0.3650549293034473  0.3993284129381891  0.3733868675506429
  0.5088407082428787  0.1785082883171114  0.4813881242301079
  0.1492517685944179  0.9683120228938691  0.4698969933316803
  0.0187287259558246  0.0290593885940567  0.5281425334267382
  0.1524632270664412  0.8146765886792409  0.5541229481232648
  0.0795992043624452  0.6061103303307505  0.5547470228447295
  0.3252150700428587  0.4819812260309035  0.5179896534408570
  0.5030372085178385  0.8071200878620814  0.5230382541706362
  0.3192671365328508  0.7989236734932987  0.5037069923104980
  0.4913186437090928  0.6249347429244025  0.6132403433083056
  0.1064136088283192  0.4532954312123820  0.4958674053521435
  0.9692159123245858  0.4930524789868187  0.4184915760369847
  0.6789754104040355  0.3354707877443772  0.4019590683023750
  0.6982355372161209  0.1801614035269310  0.4869892255375277
  0.8164378368133640  0.9659313700674872  0.5011129359473827
  0.0279738945369203  0.3674722305820808  0.3365310118140030
  0.8363180979147415  0.3457292820787288  0.3054173522795409
  0.9775931682985188  0.1475218469280222  0.4224323952804525
  0.6677032879458693  0.0071533975109546  0.5822210683762492
  0.5067012176140295  0.9909936446514607  0.4906386213290972
  0.6694808732404454  0.8279290525299317  0.6101449276653170
  0.6894730149141708  0.6545996282756050  0.5848924356651679
  0.8281037532907263  0.5294827740390673  0.3469943422310351
  0.0503216117955176  0.8973678270282548  0.6272338269133186
  0.8752581743473939  0.9067585441598638  0.6487195191736674
  0.9901946849883174  0.6882856770437300  0.4470634602322221
  0.6826902308182312  0.4821369719021149  0.5079697085200365
  0.5200940772881211  0.5152060186317229  0.4900154677745832
  0.2560236486951837  0.5769976637507668  0.5932285656974798
  0.2702909711535924  0.5914290468977725  0.8225042312121218
  0.2270017108257960  0.4979855336573564  0.8629609866042429

  0.00000000E+00  0.00000000E+00  0.00000000E+00
  0.00000000E+00  0.00000000E+00  0.00000000E+00
  0.00000000E+00  0.00000000E+00  0.00000000E+00
  0.00000000E+00  0.00000000E+00  0.00000000E+00
  0.00000000E+00  0.00000000E+00  0.00000000E+00
  0.00000000E+00  0.00000000E+00  0.00000000E+00
  0.00000000E+00  0.00000000E+00  0.00000000E+00
  0.00000000E+00  0.00000000E+00  0.00000000E+00
  0.00000000E+00  0.00000000E+00  0.00000000E+00
  0.00000000E+00  0.00000000E+00  0.00000000E+00
  0.00000000E+00  0.00000000E+00  0.00000000E+00
  0.00000000E+00  0.00000000E+00  0.00000000E+00
  0.00000000E+00  0.00000000E+00  0.00000000E+00
  0.00000000E+00  0.00000000E+00  0.00000000E+00
  0.00000000E+00  0.00000000E+00  0.00000000E+00
  0.00000000E+00  0.00000000E+00  0.00000000E+00
  0.00000000E+00  0.00000000E+00  0.00000000E+00
  0.00000000E+00  0.00000000E+00  0.00000000E+00
  0.00000000E+00  0.00000000E+00  0.00000000E+00
  0.00000000E+00  0.00000000E+00  0.00000000E+00
  0.00000000E+00  0.00000000E+00  0.00000000E+00
  0.00000000E+00  0.00000000E+00  0.00000000E+00
  0.00000000E+00  0.00000000E+00  0.00000000E+00
  0.00000000E+00  0.00000000E+00  0.00000000E+00
  0.00000000E+00  0.00000000E+00  0.00000000E+00
  0.00000000E+00  0.00000000E+00  0.00000000E+00
  0.00000000E+00  0.00000000E+00  0.00000000E+00
  0.00000000E+00  0.00000000E+00  0.00000000E+00
  0.00000000E+00  0.00000000E+00  0.00000000E+00
  0.00000000E+00  0.00000000E+00  0.00000000E+00
  0.00000000E+00  0.00000000E+00  0.00000000E+00
  0.00000000E+00  0.00000000E+00  0.00000000E+00
  0.00000000E+00  0.00000000E+00  0.00000000E+00
  0.00000000E+00  0.00000000E+00  0.00000000E+00
  0.00000000E+00  0.00000000E+00  0.00000000E+00
  0.00000000E+00  0.00000000E+00  0.00000000E+00
  0.00000000E+00  0.00000000E+00  0.00000000E+00
  0.00000000E+00  0.00000000E+00  0.00000000E+00
  0.00000000E+00  0.00000000E+00  0.00000000E+00
  0.00000000E+00  0.00000000E+00  0.00000000E+00
  0.00000000E+00  0.00000000E+00  0.00000000E+00
  0.00000000E+00  0.00000000E+00  0.00000000E+00
  0.00000000E+00  0.00000000E+00  0.00000000E+00
  0.00000000E+00  0.00000000E+00  0.00000000E+00
  0.00000000E+00  0.00000000E+00  0.00000000E+00
  0.00000000E+00  0.00000000E+00  0.00000000E+00
  0.00000000E+00  0.00000000E+00  0.00000000E+00
  0.00000000E+00  0.00000000E+00  0.00000000E+00
  0.00000000E+00  0.00000000E+00  0.00000000E+00
  0.00000000E+00  0.00000000E+00  0.00000000E+00
  0.00000000E+00  0.00000000E+00  0.00000000E+00
  0.00000000E+00  0.00000000E+00  0.00000000E+00
  0.00000000E+00  0.00000000E+00  0.00000000E+00
  0.00000000E+00  0.00000000E+00  0.00000000E+00
  0.00000000E+00  0.00000000E+00  0.00000000E+00
  0.00000000E+00  0.00000000E+00  0.00000000E+00
  0.00000000E+00  0.00000000E+00  0.00000000E+00
  0.00000000E+00  0.00000000E+00  0.00000000E+00
  0.00000000E+00  0.00000000E+00  0.00000000E+00
