POSCAR-c3n4                             
  0.92000000000000004     
    13.8434242346000005   -0.1907404740000000    0.0000000000000000
    -6.9217121174000003   11.6951909939000007    0.0000000000000000
     0.0000000000000000    0.0000000000000000   15.0000000000000000
   C    N    Ge   C    O 
    24    32     1     1     1
Direct
  0.1016997923231114  0.2066995696736916  0.4120723682804734
  0.2923334510467955  0.4100637203051439  0.4343290099889063
  0.0972237227932978  0.3902535210490347  0.4128397147167279
  0.4477282191855630  0.0599632956927943  0.5064959076235028
  0.4781366141368127  0.4412177957997896  0.4053118941107919
  0.1169049286562251  0.0517700365821784  0.4668441396134005
  0.0656859264069693  0.6970037473761300  0.5171590247462348
  0.2766773186967330  0.8712410706753291  0.5347615109093032
  0.1159443781129081  0.9022176712631809  0.5510959125842425
  0.4456879888588611  0.5409719884233096  0.5432034124920946
  0.4427103180585297  0.8644917418914729  0.5021619291529421
  0.0465813385242233  0.5144245834055015  0.4917640317472897
  0.6275834006525853  0.2232092701624379  0.4535422889756586
  0.7762149262829949  0.3991576278561300  0.3428870738977109
  0.6314990720859243  0.4119430088410739  0.4288110986676285
  0.9333171151816765  0.0506621473063278  0.4816417124600059
  0.9435114269363362  0.3992219452277487  0.3470460165985207
  0.6328520775135680  0.0637472555300899  0.5198527165242129
  0.6168838335784447  0.6987289041548583  0.6060695301105389
  0.7969866262615342  0.9069209078214823  0.5862054317460470
  0.6061568429496599  0.8825051986833907  0.5723690606043652
  0.9243453394049651  0.5748310261804260  0.4034772292452512
  0.9840616799944130  0.9485467522355882  0.6059014679942023
  0.6361219524339530  0.5513267381270692  0.5313693096395261
  0.1665963895890877  0.3349255516748620  0.4128709376013036
  0.1658443418000201  0.1503486309784469  0.4096176706158001
  0.3381407556841501 -0.0048086845599702  0.5488709261304269
  0.5454141588615500  0.3998221160184068  0.3683808084138415
  0.3650549293034447  0.3993284129381870  0.3733868675506395
  0.5088407082428813  0.1785082883171147  0.4813881242301062
  0.1492517685944191  0.9683120228938710  0.4698969933316816
  0.0187287259558236  0.0290593885940552  0.5281425334267371
  0.1524632270664442  0.8146765886792386  0.5541229481232670
  0.0795992043624429  0.6061103303307496  0.5547470228447284
  0.3252150700428583  0.4819812260309008  0.5179896534408596
  0.5030372085178386  0.8071200878620811  0.5230382541706374
  0.3192671365328487  0.7989236734933015  0.5037069923104966
  0.4913186437090932  0.6249347429244039  0.6132403433083062
  0.1064136088283216  0.4532954312123852  0.4958674053521470
  0.9692159123245845  0.4930524789868170  0.4184915760369823
  0.6789754104040375  0.3354707877443742  0.4019590683023765
  0.6982355372161223  0.1801614035269276  0.4869892255375298
  0.8164378368133642  0.9659313700674845  0.5011129359473809
  0.0279738945369187  0.3674722305820839  0.3365310118140039
  0.8363180979147427  0.3457292820787293  0.3054173522795388
  0.9775931682985181  0.1475218469280242  0.4224323952804537
  0.6677032879458673  0.0071533975109580  0.5822210683762479
  0.5067012176140290 -0.0090063553485425  0.4906386213290973
  0.6694808732404485  0.8279290525299337  0.6101449276653138
  0.6894730149141702  0.6545996282756024  0.5848924356651707
  0.8281037532907272  0.5294827740390681  0.3469943422310322
  0.0503216117955146  0.8973678270282552  0.6272338269133164
  0.8752581743473972  0.9067585441598606  0.6487195191736701
 -0.0098053150116791  0.6882856770437314  0.4470634602322255
  0.6826902308182315  0.4821369719021167  0.5079697085200354
  0.5200940772881186  0.5152060186317222  0.4900154677745813
  0.2560236486951838  0.5769976637507664  0.5932285656974770
  0.2702909711535921  0.5914290468977731  0.8225042312121202
  0.2270017108257927  0.4979855336573532  0.8629609866042464

  0.00000000E+00  0.00000000E+00  0.00000000E+00
  0.00000000E+00  0.00000000E+00  0.00000000E+00
  0.00000000E+00  0.00000000E+00  0.00000000E+00
  0.00000000E+00  0.00000000E+00  0.00000000E+00
  0.00000000E+00  0.00000000E+00  0.00000000E+00
  0.00000000E+00  0.00000000E+00  0.00000000E+00
  0.00000000E+00  0.00000000E+00  0.00000000E+00
  0.00000000E+00  0.00000000E+00  0.00000000E+00
  0.00000000E+00  0.00000000E+00  0.00000000E+00
  0.00000000E+00  0.00000000E+00  0.00000000E+00
  0.00000000E+00  0.00000000E+00  0.00000000E+00
  0.00000000E+00  0.00000000E+00  0.00000000E+00
  0.00000000E+00  0.00000000E+00  0.00000000E+00
  0.00000000E+00  0.00000000E+00  0.00000000E+00
  0.00000000E+00  0.00000000E+00  0.00000000E+00
  0.00000000E+00  0.00000000E+00  0.00000000E+00
  0.00000000E+00  0.00000000E+00  0.00000000E+00
  0.00000000E+00  0.00000000E+00  0.00000000E+00
  0.00000000E+00  0.00000000E+00  0.00000000E+00
  0.00000000E+00  0.00000000E+00  0.00000000E+00
  0.00000000E+00  0.00000000E+00  0.00000000E+00
  0.00000000E+00  0.00000000E+00  0.00000000E+00
  0.00000000E+00  0.00000000E+00  0.00000000E+00
  0.00000000E+00  0.00000000E+00  0.00000000E+00
  0.00000000E+00  0.00000000E+00  0.00000000E+00
  0.00000000E+00  0.00000000E+00  0.00000000E+00
  0.00000000E+00  0.00000000E+00  0.00000000E+00
  0.00000000E+00  0.00000000E+00  0.00000000E+00
  0.00000000E+00  0.00000000E+00  0.00000000E+00
  0.00000000E+00  0.00000000E+00  0.00000000E+00
  0.00000000E+00  0.00000000E+00  0.00000000E+00
  0.00000000E+00  0.00000000E+00  0.00000000E+00
  0.00000000E+00  0.00000000E+00  0.00000000E+00
  0.00000000E+00  0.00000000E+00  0.00000000E+00
  0.00000000E+00  0.00000000E+00  0.00000000E+00
  0.00000000E+00  0.00000000E+00  0.00000000E+00
  0.00000000E+00  0.00000000E+00  0.00000000E+00
  0.00000000E+00  0.00000000E+00  0.00000000E+00
  0.00000000E+00  0.00000000E+00  0.00000000E+00
  0.00000000E+00  0.00000000E+00  0.00000000E+00
  0.00000000E+00  0.00000000E+00  0.00000000E+00
  0.00000000E+00  0.00000000E+00  0.00000000E+00
  0.00000000E+00  0.00000000E+00  0.00000000E+00
  0.00000000E+00  0.00000000E+00  0.00000000E+00
  0.00000000E+00  0.00000000E+00  0.00000000E+00
  0.00000000E+00  0.00000000E+00  0.00000000E+00
  0.00000000E+00  0.00000000E+00  0.00000000E+00
  0.00000000E+00  0.00000000E+00  0.00000000E+00
  0.00000000E+00  0.00000000E+00  0.00000000E+00
  0.00000000E+00  0.00000000E+00  0.00000000E+00
  0.00000000E+00  0.00000000E+00  0.00000000E+00
  0.00000000E+00  0.00000000E+00  0.00000000E+00
  0.00000000E+00  0.00000000E+00  0.00000000E+00
  0.00000000E+00  0.00000000E+00  0.00000000E+00
  0.00000000E+00  0.00000000E+00  0.00000000E+00
  0.00000000E+00  0.00000000E+00  0.00000000E+00
  0.00000000E+00  0.00000000E+00  0.00000000E+00
  0.00000000E+00  0.00000000E+00  0.00000000E+00
  0.00000000E+00  0.00000000E+00  0.00000000E+00
