POSCAR-clean
1.0
14.8598008644 0.001585983 0.0
-7.4299004321 12.7560967618 0.0
0.0 0.0 15.0
C N C Cr C O
1 1 68 1 1 1
Cartesian
0.0021779055 0.0107910792 7.3507371243
0.0007612354 1.4213194262 7.3516805624
2.4829276965 0.0245216771 7.3480850768
2.466299178 1.4429503724 7.358646173
4.9509695418 0.0283579455 7.3513455195
4.9477124898 1.4475493081 7.3608773192
7.4316184374 -0.0006568864 7.3511641741
7.4324800371 1.4217191289 7.3499551102
2.4812182438 12.7311733055 7.3589495157
9.9178764334 1.3946899774 7.3483041275
4.9519013267 12.7288278485 7.3610836157
12.3952160028 1.3909273722 7.3510890027
13.6298021521 2.1069480926 7.3524435964
-1.2381018772 3.5205569428 7.3624126641
1.2255014367 2.1370803661 7.361371595
1.2255266206 3.5580905831 7.3861745695
3.7065727176 2.173485617 7.3758020538
3.7136463677 3.5895262902 7.4232157972
6.1923990018 2.145394236 7.3614626502
6.1969737732 3.5681117625 7.3859917961
8.6792828929 2.1125027312 7.3480728974
8.6820055163 3.5307118396 7.3557548699
11.1568700861 2.1061773971 7.3493128632
11.1497956842 3.5252931148 7.351509745
12.3811130416 4.2309992902 7.3599062936
-2.4862493389 5.6561541902 7.3669435633
-0.0157733886 4.2480456372 7.3851706103
-0.0415167828 5.6607417579 7.4102246738
2.4682314691 4.3001447539 7.4370595832
2.421942854 5.7146054569 7.5285778435
4.9588884293 4.3104667725 7.4389770342
5.0078106978 5.7223543219 7.5318621422
7.4488016949 4.2472541025 7.3800564451
7.4748191888 5.6638304343 7.4032077885
9.9165213233 4.2390225606 7.3538802868
9.9220586748 5.6621547321 7.3591093899
-3.7120484713 6.3733804169 7.3595917507
-3.7134922607 7.7983469668 7.3594274093
-1.2693224228 6.3748831703 7.3898096851
-1.2680384833 7.7964676757 7.3897017934
1.1800814887 6.3669819516 7.4633647388
1.1796988963 7.8041000261 7.4636027523
6.2551359924 6.3708206665 7.4627287612
6.2555182053 7.8068482988 7.4629946415
8.700512138 6.3774021381 7.3784773229
8.7000882964 7.8002280619 7.3784503429
-4.9402104447 8.5154295505 7.3588766747
-4.9480217786 9.9408613052 7.3536843314
-2.489315788 8.512262359 7.3667134064
-2.4837609586 9.936238545 7.3599826465
-0.0402470136 8.5100811353 7.4105045472
-0.0151112846 9.9286666269 7.3853764693
2.4276800557 8.4523987629 7.5294132085
2.4753572612 9.8653533167 7.4359479876
5.009929182 8.4584263456 7.5344656863
4.9645242599 9.8717892069 7.4385150274
7.4741784028 8.5138469667 7.4033216358
7.449088766 9.9330020884 7.3799750709
-6.1856337621 10.652136332 7.3555671156
-6.1873805471 12.0761654743 7.3480285241
-3.715344247 10.648809121 7.3513925822
-3.7151479725 12.0728181059 7.3493686169
-1.2480589115 10.6454859396 7.3626513411
-1.2430948819 12.0647479234 7.3526043962
1.2369380572 10.6079157783 7.3859716603
1.2394165493 12.0318636679 7.3607896944
3.7190749623 10.5848145584 7.4223226798
3.7188589331 12.0062587615 7.3758826152
6.2038806391 10.61660931 7.3856817106
6.1992998036 12.0446565185 7.3619134434
3.7166961975 7.0893486296 8.2023814908
3.7166961975 7.0893486296 10.6823814908
3.3956822509 6.3635049369 11.5277186745