POSCAR-c3n4                             
   1.2000000000000000     
    13.8434242346000005   -0.1907404740000000    0.0000000000000000
    -6.9217121174000003   11.6951909939000007    0.0000000000000000
     0.0000000000000000    0.0000000000000000   15.0000000000000000
   C    N    Ge   C    O 
    24    32     1     1     1
Direct
  0.0482140515256901  0.1179583022740545  0.4737631246619074
  0.2744271832145841  0.5130383766866089  0.4869555898502043
  0.1816173213596244  0.5074324853855572  0.4879391744978392
  0.5569746179492299  0.0774922522641290  0.4789275111601228
  0.3707471922256431  0.4580471806256767  0.4554376272607641
  0.0427341282398217  0.9778569625902307  0.4999405701958040
  0.0473409242567158  0.6943975774122961  0.5179907054062696
  0.4089141984170368  0.9495206585050084  0.4639307192752042
  0.0232869908612301  0.8292086754698929  0.5208568692212268
  0.4361286535628679  0.6160319322939216  0.5129803977525498
  0.5191764226768143  0.9110759245944777  0.4774539170401297
  0.1158128028523038  0.6029605242762344  0.5104932533465316
  0.7132310521466323  0.1967606850963790  0.4982394137805954
  0.8585792673038029  0.3639487474714258  0.4839999156624799
  0.4767421554858444  0.4175906916802177  0.4284252290120776
  0.9015905650774485  0.9843191822361135  0.4746684485226993
  0.0201479229888477  0.4323865789803776  0.4766748104571690
  0.6732905351929688  0.0403989152208268  0.5209572092816472
  0.5941637935313864  0.7194528828157658  0.5124127311025575
  0.7626337635737812  0.8521497060357675  0.5044046999036098
  0.6342567755246193  0.8851075881147921  0.5120205649214071
  0.9488678859748774  0.5305470859814108  0.4959848565510043
  0.8887619095939456  0.8363642281327230  0.5215883552837042
  0.5429057158014245  0.5692669012502165  0.4688237575107124
  0.1025364171255845  0.2157342179668689  0.4710347299894408
  0.0956039770137096  0.0739623496755470  0.4903654658957919
  0.4625175136660573  0.0412042514682511  0.4663155227283866
  0.3871026167849720  0.3922207112809559  0.4285325247236358
  0.2829247399740424  0.4428252282780107  0.4606743463150451
  0.6205850949002354  0.1683440940676277  0.4805859673653643
  0.0815265771197744  0.9265308294718935  0.5110655074177259
  0.9436939008273768  0.9330926853281127  0.4985995176952045
  0.0724293241236751  0.7854181876763846  0.5226032685189068
  0.1268380807227345  0.6851007715309123  0.5272694621351093
  0.3465627689559128  0.5989891971064054  0.5143191964942062
  0.5511944351548834  0.8519979348602362  0.4772108575004239
  0.4266121609505120  0.8788764480379925  0.4657172263617539
  0.5075198985190426  0.6953440397711290  0.5394996699960615
  0.1939112725418752  0.5942037028103115  0.5085935172379834
  0.0303196267117087  0.5218240955577897  0.4936309980539448
  0.7725552814167642  0.2890344987691265  0.4898753705100418
  0.7360561670666215  0.1326636355236701  0.5267964924152508
  0.8072840724930259  0.9358589504243469  0.4685914446562194
  0.1019427460915239  0.4293695036052938  0.4712649435537060
  0.9369322981819792  0.3554790362933389  0.4682299065225592
  0.9541764793468772  0.0775633104318558  0.4606241451530622
  0.6908282580290646  0.9706428440200199  0.5410429708851652
  0.5818729738023691  0.0080090264753991  0.4913163415794841
  0.6630666523475597  0.8159163176287620  0.5151211021868747
  0.6138247336864495  0.6577357807490927  0.4809062227803693
  0.8650684395246202  0.4506022435888184  0.4913211253389207
  0.9280997864373646  0.7848865274886307  0.5323825126907522
  0.7953145008785185  0.8004897169211773  0.5329235963582022
  0.9604376057396422  0.6174178236352788  0.5033548806434140
  0.5541134634345397  0.4974651586991641  0.4447757441953968
  0.4487802728695272  0.5471761630920753  0.4782379900140299
  0.3158430799306515  0.7048959297006121  0.5457148424579827
  0.2600529476120386  0.5844814686846718  0.6786363467488385
  0.2514472882746546  0.5566517856313951  0.7379967910958669

  0.00000000E+00  0.00000000E+00  0.00000000E+00
  0.00000000E+00  0.00000000E+00  0.00000000E+00
  0.00000000E+00  0.00000000E+00  0.00000000E+00
  0.00000000E+00  0.00000000E+00  0.00000000E+00
  0.00000000E+00  0.00000000E+00  0.00000000E+00
  0.00000000E+00  0.00000000E+00  0.00000000E+00
  0.00000000E+00  0.00000000E+00  0.00000000E+00
  0.00000000E+00  0.00000000E+00  0.00000000E+00
  0.00000000E+00  0.00000000E+00  0.00000000E+00
  0.00000000E+00  0.00000000E+00  0.00000000E+00
  0.00000000E+00  0.00000000E+00  0.00000000E+00
  0.00000000E+00  0.00000000E+00  0.00000000E+00
  0.00000000E+00  0.00000000E+00  0.00000000E+00
  0.00000000E+00  0.00000000E+00  0.00000000E+00
  0.00000000E+00  0.00000000E+00  0.00000000E+00
  0.00000000E+00  0.00000000E+00  0.00000000E+00
  0.00000000E+00  0.00000000E+00  0.00000000E+00
  0.00000000E+00  0.00000000E+00  0.00000000E+00
  0.00000000E+00  0.00000000E+00  0.00000000E+00
  0.00000000E+00  0.00000000E+00  0.00000000E+00
  0.00000000E+00  0.00000000E+00  0.00000000E+00
  0.00000000E+00  0.00000000E+00  0.00000000E+00
  0.00000000E+00  0.00000000E+00  0.00000000E+00
  0.00000000E+00  0.00000000E+00  0.00000000E+00
  0.00000000E+00  0.00000000E+00  0.00000000E+00
  0.00000000E+00  0.00000000E+00  0.00000000E+00
  0.00000000E+00  0.00000000E+00  0.00000000E+00
  0.00000000E+00  0.00000000E+00  0.00000000E+00
  0.00000000E+00  0.00000000E+00  0.00000000E+00
  0.00000000E+00  0.00000000E+00  0.00000000E+00
  0.00000000E+00  0.00000000E+00  0.00000000E+00
  0.00000000E+00  0.00000000E+00  0.00000000E+00
  0.00000000E+00  0.00000000E+00  0.00000000E+00
  0.00000000E+00  0.00000000E+00  0.00000000E+00
  0.00000000E+00  0.00000000E+00  0.00000000E+00
  0.00000000E+00  0.00000000E+00  0.00000000E+00
  0.00000000E+00  0.00000000E+00  0.00000000E+00
  0.00000000E+00  0.00000000E+00  0.00000000E+00
  0.00000000E+00  0.00000000E+00  0.00000000E+00
  0.00000000E+00  0.00000000E+00  0.00000000E+00
  0.00000000E+00  0.00000000E+00  0.00000000E+00
  0.00000000E+00  0.00000000E+00  0.00000000E+00
  0.00000000E+00  0.00000000E+00  0.00000000E+00
  0.00000000E+00  0.00000000E+00  0.00000000E+00
  0.00000000E+00  0.00000000E+00  0.00000000E+00
  0.00000000E+00  0.00000000E+00  0.00000000E+00
  0.00000000E+00  0.00000000E+00  0.00000000E+00
  0.00000000E+00  0.00000000E+00  0.00000000E+00
  0.00000000E+00  0.00000000E+00  0.00000000E+00
  0.00000000E+00  0.00000000E+00  0.00000000E+00
  0.00000000E+00  0.00000000E+00  0.00000000E+00
  0.00000000E+00  0.00000000E+00  0.00000000E+00
  0.00000000E+00  0.00000000E+00  0.00000000E+00
  0.00000000E+00  0.00000000E+00  0.00000000E+00
  0.00000000E+00  0.00000000E+00  0.00000000E+00
  0.00000000E+00  0.00000000E+00  0.00000000E+00
  0.00000000E+00  0.00000000E+00  0.00000000E+00
  0.00000000E+00  0.00000000E+00  0.00000000E+00
  0.00000000E+00  0.00000000E+00  0.00000000E+00
