POSCAR-c3n4                             
  0.88000000000000000     
    13.8434242346000005   -0.1907404740000000    0.0000000000000000
    -6.9217121174000003   11.6951909939000007    0.0000000000000000
     0.0000000000000000    0.0000000000000000   15.0000000000000000
   C    N    Ge   C    O 
    24    32     1     1     1
Direct
  0.1041189464932089  0.2021576944461145  0.4029092975280619
  0.2878551435576000  0.4181733136748633  0.4316320725101832
  0.0803522420945768  0.3833415728610490  0.4021908839492383
  0.4531880279681815  0.0511518983832957  0.4899656046672831
  0.4848408592240787  0.4630383203223829  0.4042256678453668
  0.1371421856047519  0.0651347937740496  0.4826393553423642
  0.0569797055648493  0.6970994276850107  0.5328699896918749
  0.2822846348498729  0.8607321158427936  0.5435608684981403
  0.1344906571633189  0.9142397202631969  0.5806445503146520
  0.4338095218925702  0.5325809605921705  0.5592584993194833
  0.4394516469820857  0.8436882266222625  0.4784333725818328
  0.0225394461355108  0.5021179377643037  0.4915227520747720
  0.6328524424321671  0.2209110285277660  0.4212481167016549
  0.7763961719261374  0.4275290451070504  0.3137590136155453
  0.6352115854343054  0.4187055003307236  0.4245511669610806
  0.9355600746175057  0.0385638929276340  0.4802522326546352
  0.9431840561481977  0.4201622091070263  0.3230439403287590
  0.6393264310201161  0.0524397506249201  0.4842676768958611
  0.6098766471270878  0.6877202443318637  0.6319820440787893
  0.7997336686993535  0.8996016639790554  0.5976643284727245
  0.6050493183598462  0.8719293718737759  0.5633677849846492
  0.9197509113627973  0.5948990999214629  0.4004939912095296
  0.9993928967731378  0.9688985392145710  0.6296561594320593
  0.6326765114894357  0.5405653715820549  0.5492859604862304
  0.1599815566920384  0.3338885624880206  0.4005135696733717
  0.1825002619144627  0.1566871086675334  0.4129594495013507
  0.3582183526796783  0.9891072731586732  0.5570971254160284
  0.5567677723086604  0.4271432421512529  0.3592276053697816
  0.3711160737718586  0.4289017646468665  0.3643046749712724
  0.5125599358704847  0.1737327901443209  0.4606744841892123
  0.1702010580865121  0.9788294924832499  0.4939210530323450
  0.0329151474161335  0.0452742002350845  0.5441697353467276
  0.1576040711374986  0.8108286338401740  0.5809894764065504
  0.0562990603081488  0.5901994547105360  0.5650346882796100
  0.3104630779841884  0.4721266352160285  0.5271630947455321
  0.5021642600561975  0.7858642558954116  0.5084653738053433
  0.3098296877139148  0.7778782528151424  0.4963215645630115
  0.4779038845976586  0.6122083531372624  0.6378436983996991
  0.0759528042946513  0.4300506486173745  0.4947182960644341
  0.9585133827896897  0.5015349031212963  0.4090954087762952
  0.6855372160216291  0.3470188934364913  0.3801139567726182
  0.7073344582098287  0.1731007698858065  0.4470310589657132
  0.8188062398482998  0.9385562981085442  0.5001140260206611
  0.0271744394092011  0.3805408886488877  0.3160076184484950
  0.8468015616151874  0.3864184875060062  0.2633159881725504
  0.9740512894433309  0.1272083419348107  0.4077293661217141
  0.6698292855279817  0.0022467848793752  0.5614744932963873
  0.5041455237041816  0.9722508593810488  0.4534934657855700
  0.6657688404384032  0.8214328630547811  0.6221097873535371
  0.6839677219956144  0.6363240638298393  0.6160870843933992
  0.8282793308063177  0.5625612781019882  0.3339275581881438
  0.0691309992855693  0.9180689061908680  0.6593151833386983
  0.8821906833758106  0.9217474947210036  0.6703943581552068
  0.9877457623612713  0.7043982326122276  0.4586939714562561
  0.6800877595459554  0.4694238775397537  0.5155127250354141
  0.5169693267332391  0.5149198968798103  0.5016553152765795
  0.2400427274725772  0.5829470545047428  0.6030991857767489
  0.2485827096846194  0.5700378076252761  0.8534006562392236
  0.2346212855715493  0.4864824417163760  0.9045995723910920

  0.00000000E+00  0.00000000E+00  0.00000000E+00
  0.00000000E+00  0.00000000E+00  0.00000000E+00
  0.00000000E+00  0.00000000E+00  0.00000000E+00
  0.00000000E+00  0.00000000E+00  0.00000000E+00
  0.00000000E+00  0.00000000E+00  0.00000000E+00
  0.00000000E+00  0.00000000E+00  0.00000000E+00
  0.00000000E+00  0.00000000E+00  0.00000000E+00
  0.00000000E+00  0.00000000E+00  0.00000000E+00
  0.00000000E+00  0.00000000E+00  0.00000000E+00
  0.00000000E+00  0.00000000E+00  0.00000000E+00
  0.00000000E+00  0.00000000E+00  0.00000000E+00
  0.00000000E+00  0.00000000E+00  0.00000000E+00
  0.00000000E+00  0.00000000E+00  0.00000000E+00
  0.00000000E+00  0.00000000E+00  0.00000000E+00
  0.00000000E+00  0.00000000E+00  0.00000000E+00
  0.00000000E+00  0.00000000E+00  0.00000000E+00
  0.00000000E+00  0.00000000E+00  0.00000000E+00
  0.00000000E+00  0.00000000E+00  0.00000000E+00
  0.00000000E+00  0.00000000E+00  0.00000000E+00
  0.00000000E+00  0.00000000E+00  0.00000000E+00
  0.00000000E+00  0.00000000E+00  0.00000000E+00
  0.00000000E+00  0.00000000E+00  0.00000000E+00
  0.00000000E+00  0.00000000E+00  0.00000000E+00
  0.00000000E+00  0.00000000E+00  0.00000000E+00
  0.00000000E+00  0.00000000E+00  0.00000000E+00
  0.00000000E+00  0.00000000E+00  0.00000000E+00
  0.00000000E+00  0.00000000E+00  0.00000000E+00
  0.00000000E+00  0.00000000E+00  0.00000000E+00
  0.00000000E+00  0.00000000E+00  0.00000000E+00
  0.00000000E+00  0.00000000E+00  0.00000000E+00
  0.00000000E+00  0.00000000E+00  0.00000000E+00
  0.00000000E+00  0.00000000E+00  0.00000000E+00
  0.00000000E+00  0.00000000E+00  0.00000000E+00
  0.00000000E+00  0.00000000E+00  0.00000000E+00
  0.00000000E+00  0.00000000E+00  0.00000000E+00
  0.00000000E+00  0.00000000E+00  0.00000000E+00
  0.00000000E+00  0.00000000E+00  0.00000000E+00
  0.00000000E+00  0.00000000E+00  0.00000000E+00
  0.00000000E+00  0.00000000E+00  0.00000000E+00
  0.00000000E+00  0.00000000E+00  0.00000000E+00
  0.00000000E+00  0.00000000E+00  0.00000000E+00
  0.00000000E+00  0.00000000E+00  0.00000000E+00
  0.00000000E+00  0.00000000E+00  0.00000000E+00
  0.00000000E+00  0.00000000E+00  0.00000000E+00
  0.00000000E+00  0.00000000E+00  0.00000000E+00
  0.00000000E+00  0.00000000E+00  0.00000000E+00
  0.00000000E+00  0.00000000E+00  0.00000000E+00
  0.00000000E+00  0.00000000E+00  0.00000000E+00
  0.00000000E+00  0.00000000E+00  0.00000000E+00
  0.00000000E+00  0.00000000E+00  0.00000000E+00
  0.00000000E+00  0.00000000E+00  0.00000000E+00
  0.00000000E+00  0.00000000E+00  0.00000000E+00
  0.00000000E+00  0.00000000E+00  0.00000000E+00
  0.00000000E+00  0.00000000E+00  0.00000000E+00
  0.00000000E+00  0.00000000E+00  0.00000000E+00
  0.00000000E+00  0.00000000E+00  0.00000000E+00
  0.00000000E+00  0.00000000E+00  0.00000000E+00
  0.00000000E+00  0.00000000E+00  0.00000000E+00
  0.00000000E+00  0.00000000E+00  0.00000000E+00
