POSCAR-clean                            
   1.00000000000000     
    14.8584948118000000    0.0076534733000000    0.0000000000000000
    -7.4292474058000000   12.7385461942999996    0.0000000000000000
     0.0000000000000000    0.0000000000000000   15.0000000000000000
   C    N    C    Cr   C    O 
    40     1    29     1     1     1
Direct
  0.0014089340025986  0.0012556732324660  0.4913645627278789
  0.0572626207309086  0.1128238612400387  0.4930039445817333
  0.1685588981325229  0.0024931276702837  0.4910785895806957
  0.2243059157151884  0.1141200520496864  0.4937192855687548
  0.3347895442941369  0.0019525574671093  0.4908593510753247
  0.3902802214991286  0.1135427115202444  0.4917959886446432
  0.5005401572122604  0.9992483977571861  0.4923816132642891
  0.5561501727368888  0.1108539763578772  0.4918711669627349
  0.6661164141202738  0.9980325095908917  0.4925242389047571
  0.7220478140399791  0.1097818802046066  0.4912696978504194
  0.8329731777267914  0.9986950653944699  0.4904346022041495
  0.8889268042563251  0.1103877730359392  0.4906856128711553
  0.0005789450944057  0.1669715436047186  0.4922754631827236
  0.0560714742201170  0.2785893933661509  0.4938609594569827
  0.1690272277901971  0.1696858217349029  0.4949129835393749
  0.2251881735269674  0.2816186623781964  0.4986453135168624
  0.3354079652117116  0.1704713269916311  0.4944278776560126
  0.3908340431460558  0.2821507935921480  0.4977904913266198
  0.5010550079724732  0.1672549041321578  0.4917113684353952
  0.5567910350333324  0.2786317180293606  0.4917963878348952
  0.6671098319033917  0.1658625089319827  0.4913282866349266
  0.7229732077984931  0.2774070004464615  0.4916184788866826
  0.8332209842762119  0.1657522274491869  0.4907777513682795
  0.8889392736352602  0.2771436798850215  0.4909102453454377
  0.0000150113686177  0.3330699222486769  0.4918945514772552
  0.0554657316791425  0.4442592950284731  0.4921756062968036
  0.1674226105126360  0.3348618888155661  0.4979423291201569
  0.2213610654293927  0.4454724604024909  0.4988518493141374
  0.3370127272429464  0.3407319495739345  0.5032198650579501
  0.3917150882173310  0.4537921733685022  0.5128005099247145
  0.5017910019000995  0.3352515339763275  0.4938804356080325
  0.5584728382584400  0.4451097690977432  0.4962176261631261
  0.6679365877255082  0.3332244259493062  0.4929548372211980
  0.7244261333519449  0.4445467887474380  0.4951257300688596
  0.8339316986374151  0.3329097475074743  0.4913019624872511
  0.8900057503344516  0.4445711478451126  0.4918293926618680
  0.0007511345881593  0.5002783854041740  0.4915442860049688
  0.0560957840428988  0.6115560713493959  0.4912156277437844
  0.1661263037389679  0.5005463308818862  0.4947431594770146
  0.2209543594883658  0.6117023352250435  0.4940918459170873
  0.3293727868982236  0.5002496747776002  0.5045461065272707
  0.3852660576961750  0.6104069298561040  0.5033074601719637
  0.6691465520170781  0.4997059424486550  0.4939999382459985
  0.7256119460951216  0.6127032657424929  0.4922299576679136
  0.8352989438721310  0.5003264166093031  0.4938686918815333
  0.8909142255200581  0.6118222936600998  0.4934663959134429
  0.0013571109021851  0.6674369847693138  0.4911137464802924
  0.0570330261066594  0.7792291682753956  0.4902266937905788
  0.1667663089301573  0.6674910310495057  0.4914705906521179
  0.2231315799538054  0.7791015230000886  0.4910253519950389
  0.3313074201339506  0.6660019277726160  0.4968089448530435
  0.3887767183469946  0.7774217476672741  0.4954936884047753
  0.4940262722315180  0.6582842554591798  0.5101622116366588
  0.5528129042909965  0.7712886450032621  0.5006678754181930
  0.6694728612156470  0.6666775483758421  0.4891819697696374
  0.7223720883133249  0.7763325895046643  0.4896794905319479
  0.8362559550578783  0.6677949133026209  0.4935488270562827
  0.8907060939034852  0.7789388585254833  0.4907214842634798
  0.0018159339901865  0.8349066773016204  0.4902301357508102
  0.0574503960777612  0.9463794601659665  0.4905171915912002
  0.1681190282418181  0.8351175854409413  0.4900495420219286
  0.2238170264951329  0.9466593035502214  0.4903056764267560
  0.3340672748622092  0.8339446821331037  0.4925577936547539
  0.3897299512583750  0.9454879830648872  0.4917077871724102
  0.4995558705641462  0.8301366149187485  0.4961672667640972
  0.5552758209456872  0.9423128002168781  0.4932719823290648
  0.6648344113009174  0.8300886647758288  0.4946187804630465
  0.7209023494382243  0.9414976244737575  0.4923894987700023
  0.8341949796880155  0.8334009064053912  0.4890823506373713
  0.8898414742720843  0.9447563110691514  0.4901875314512931
  0.5423428494978412  0.5562570077271102  0.5414063264507837
  0.4951801248422303  0.5188613182979620  0.6601515262157437
  0.4705824378897156  0.5035013574918972  0.7350033092289819
 
  0.00000000E+00  0.00000000E+00  0.00000000E+00
  0.00000000E+00  0.00000000E+00  0.00000000E+00
  0.00000000E+00  0.00000000E+00  0.00000000E+00
  0.00000000E+00  0.00000000E+00  0.00000000E+00
  0.00000000E+00  0.00000000E+00  0.00000000E+00
  0.00000000E+00  0.00000000E+00  0.00000000E+00
  0.00000000E+00  0.00000000E+00  0.00000000E+00
  0.00000000E+00  0.00000000E+00  0.00000000E+00
  0.00000000E+00  0.00000000E+00  0.00000000E+00
  0.00000000E+00  0.00000000E+00  0.00000000E+00
  0.00000000E+00  0.00000000E+00  0.00000000E+00
  0.00000000E+00  0.00000000E+00  0.00000000E+00
  0.00000000E+00  0.00000000E+00  0.00000000E+00
  0.00000000E+00  0.00000000E+00  0.00000000E+00
  0.00000000E+00  0.00000000E+00  0.00000000E+00
  0.00000000E+00  0.00000000E+00  0.00000000E+00
  0.00000000E+00  0.00000000E+00  0.00000000E+00
  0.00000000E+00  0.00000000E+00  0.00000000E+00
  0.00000000E+00  0.00000000E+00  0.00000000E+00
  0.00000000E+00  0.00000000E+00  0.00000000E+00
  0.00000000E+00  0.00000000E+00  0.00000000E+00
  0.00000000E+00  0.00000000E+00  0.00000000E+00
  0.00000000E+00  0.00000000E+00  0.00000000E+00
  0.00000000E+00  0.00000000E+00  0.00000000E+00
  0.00000000E+00  0.00000000E+00  0.00000000E+00
  0.00000000E+00  0.00000000E+00  0.00000000E+00
  0.00000000E+00  0.00000000E+00  0.00000000E+00
  0.00000000E+00  0.00000000E+00  0.00000000E+00
  0.00000000E+00  0.00000000E+00  0.00000000E+00
  0.00000000E+00  0.00000000E+00  0.00000000E+00
  0.00000000E+00  0.00000000E+00  0.00000000E+00
  0.00000000E+00  0.00000000E+00  0.00000000E+00
  0.00000000E+00  0.00000000E+00  0.00000000E+00
  0.00000000E+00  0.00000000E+00  0.00000000E+00
  0.00000000E+00  0.00000000E+00  0.00000000E+00
  0.00000000E+00  0.00000000E+00  0.00000000E+00
  0.00000000E+00  0.00000000E+00  0.00000000E+00
  0.00000000E+00  0.00000000E+00  0.00000000E+00
  0.00000000E+00  0.00000000E+00  0.00000000E+00
  0.00000000E+00  0.00000000E+00  0.00000000E+00
  0.00000000E+00  0.00000000E+00  0.00000000E+00
  0.00000000E+00  0.00000000E+00  0.00000000E+00
  0.00000000E+00  0.00000000E+00  0.00000000E+00
  0.00000000E+00  0.00000000E+00  0.00000000E+00
  0.00000000E+00  0.00000000E+00  0.00000000E+00
  0.00000000E+00  0.00000000E+00  0.00000000E+00
  0.00000000E+00  0.00000000E+00  0.00000000E+00
  0.00000000E+00  0.00000000E+00  0.00000000E+00
  0.00000000E+00  0.00000000E+00  0.00000000E+00
  0.00000000E+00  0.00000000E+00  0.00000000E+00
  0.00000000E+00  0.00000000E+00  0.00000000E+00
  0.00000000E+00  0.00000000E+00  0.00000000E+00
  0.00000000E+00  0.00000000E+00  0.00000000E+00
  0.00000000E+00  0.00000000E+00  0.00000000E+00
  0.00000000E+00  0.00000000E+00  0.00000000E+00
  0.00000000E+00  0.00000000E+00  0.00000000E+00
  0.00000000E+00  0.00000000E+00  0.00000000E+00
  0.00000000E+00  0.00000000E+00  0.00000000E+00
  0.00000000E+00  0.00000000E+00  0.00000000E+00
  0.00000000E+00  0.00000000E+00  0.00000000E+00
  0.00000000E+00  0.00000000E+00  0.00000000E+00
  0.00000000E+00  0.00000000E+00  0.00000000E+00
  0.00000000E+00  0.00000000E+00  0.00000000E+00
  0.00000000E+00  0.00000000E+00  0.00000000E+00
  0.00000000E+00  0.00000000E+00  0.00000000E+00
  0.00000000E+00  0.00000000E+00  0.00000000E+00
  0.00000000E+00  0.00000000E+00  0.00000000E+00
  0.00000000E+00  0.00000000E+00  0.00000000E+00
  0.00000000E+00  0.00000000E+00  0.00000000E+00
  0.00000000E+00  0.00000000E+00  0.00000000E+00
  0.00000000E+00  0.00000000E+00  0.00000000E+00
  0.00000000E+00  0.00000000E+00  0.00000000E+00
  0.00000000E+00  0.00000000E+00  0.00000000E+00
