POSCAR-c3n4                             
   1.0400000000000000     
    13.8434242346000005   -0.1907404740000000    0.0000000000000000
    -6.9217121174000003   11.6951909939000007    0.0000000000000000
     0.0000000000000000    0.0000000000000000   15.0000000000000000
   C    N    Ge   C    O 
    24    32     1     1     1
Direct
  0.1068033318747297  0.2142484538413996  0.4678351923733004
  0.2863710118891518  0.3928642551490213  0.4669010526726467
  0.1050306945695709  0.3917679992627114  0.4664184435614587
  0.4461602039747348  0.0605699947065048  0.5143508117017674
  0.4455438618722738  0.3883086849118342  0.4516979569852992
  0.1100676518195272  0.0538462101104926  0.4756081484477335
  0.1043547954094706  0.7154704853763505  0.4940290693222451
  0.2859648212594337  0.8935629834642853  0.5041642666431656
  0.1057727073220036  0.8932119156250593  0.5045747724146636
  0.4490757119076036  0.5505493971766029  0.5091606983187091
  0.4445513770695229  0.8888304202228454  0.4924426779073627
  0.0999213866119035  0.5514623779864323  0.4997292117276473
  0.6115922459847738  0.2199444005732332  0.4967853425323909
  0.7842415610967208  0.3908730120614194  0.4496118332682499
  0.6078340211618425  0.3932192905107641  0.4654645325740603
  0.9432074430182240  0.0543702684808025  0.4866448955623426
  0.9407805011986596  0.3841826119183622  0.4466655176533436
  0.6157793220437782  0.0614227013162392  0.5187724223123169
  0.6107819005065096  0.7150179965874415  0.5165672721269772
  0.7872882617025141  0.8936516524511120  0.5192601203743692
  0.6070513797573156  0.8942937781814635  0.5148797831910059
  0.9431935798569526  0.5588690451101996  0.4572229849120575
  0.9451271499587577  0.8891317948737765  0.5290101648123198
  0.6172367781606241  0.5576706214340703  0.4919331519547754
  0.1669094280789025  0.3344270965326928  0.4642944895161705
  0.1626248296586397  0.1624803853193768  0.4613479464970638
  0.3375423107241886  0.0007320266182660  0.5250060072877858
  0.5028225805931115  0.3399307130730804  0.4375988886830982
  0.3383808840188607  0.3454763863048242  0.4358563342813042
  0.5033915853838380  0.1704886144189999  0.5099502778009040
  0.1592037349539552  0.9949258963076204  0.4715172353969734
  0.9987218044556059  0.9975243722293783  0.4953885216479321
  0.1663083871385993  0.8336815681768996  0.5033358042785139
  0.1511417667167620  0.6577675250325754  0.5215614660750987
  0.3384365929548068  0.4963835310021665  0.5052508737223746
  0.5008479941728012  0.8363073465006110  0.4893334535642992
  0.3355854545014623  0.8365110148806352  0.4831360716983610
  0.5017879371338339  0.6561908874437279  0.5336431642162651
  0.1554389753460086  0.4968646092358640  0.5026858256727280
  0.9942660343969649  0.4970212486609640  0.4743250319219072
  0.6676881887774186  0.3329506196873950  0.4679556213612059
  0.6697932157561084  0.1715285420484634  0.5135335650385784
  0.8343372450706283  0.9952221037579321  0.4871856949364002
  0.0046629507157832  0.3409935360007310  0.4354088087173622
  0.8334464416064762  0.3318264202654646  0.4366568426346262
  0.9989087453625132  0.1636024422043363  0.4779757553813013
  0.6629699255915824  0.0019677787574537  0.5347143026354431
  0.5019723511281740  0.0029125067459930  0.5055294797428971
  0.6665693932692704  0.8336200464559838  0.5203568672188723
  0.6678990044436119  0.6685283418586820  0.4960147188582553
  0.8375063525352147  0.5025090537017576  0.4432988951308090
  0.0046266482014161  0.8406056346341870  0.5392765726538897
  0.8389577506451502  0.8432078245459280  0.5497357965790712
  0.0065138885041449  0.6705199959375250  0.4579272417295641
  0.6660352135168566  0.5002698648621404  0.4892130742744030
  0.5016301046557459  0.4972643629253426  0.4886437427870831
  0.3094000165847675  0.6201277708558450  0.5500249711731655
  0.2957996545660748  0.6001115506813832  0.7605055282801061
  0.2242621904071100  0.5235005426486126  0.7920808051293520

  0.00000000E+00  0.00000000E+00  0.00000000E+00
  0.00000000E+00  0.00000000E+00  0.00000000E+00
  0.00000000E+00  0.00000000E+00  0.00000000E+00
  0.00000000E+00  0.00000000E+00  0.00000000E+00
  0.00000000E+00  0.00000000E+00  0.00000000E+00
  0.00000000E+00  0.00000000E+00  0.00000000E+00
  0.00000000E+00  0.00000000E+00  0.00000000E+00
  0.00000000E+00  0.00000000E+00  0.00000000E+00
  0.00000000E+00  0.00000000E+00  0.00000000E+00
  0.00000000E+00  0.00000000E+00  0.00000000E+00
  0.00000000E+00  0.00000000E+00  0.00000000E+00
  0.00000000E+00  0.00000000E+00  0.00000000E+00
  0.00000000E+00  0.00000000E+00  0.00000000E+00
  0.00000000E+00  0.00000000E+00  0.00000000E+00
  0.00000000E+00  0.00000000E+00  0.00000000E+00
  0.00000000E+00  0.00000000E+00  0.00000000E+00
  0.00000000E+00  0.00000000E+00  0.00000000E+00
  0.00000000E+00  0.00000000E+00  0.00000000E+00
  0.00000000E+00  0.00000000E+00  0.00000000E+00
  0.00000000E+00  0.00000000E+00  0.00000000E+00
  0.00000000E+00  0.00000000E+00  0.00000000E+00
  0.00000000E+00  0.00000000E+00  0.00000000E+00
  0.00000000E+00  0.00000000E+00  0.00000000E+00
  0.00000000E+00  0.00000000E+00  0.00000000E+00
  0.00000000E+00  0.00000000E+00  0.00000000E+00
  0.00000000E+00  0.00000000E+00  0.00000000E+00
  0.00000000E+00  0.00000000E+00  0.00000000E+00
  0.00000000E+00  0.00000000E+00  0.00000000E+00
  0.00000000E+00  0.00000000E+00  0.00000000E+00
  0.00000000E+00  0.00000000E+00  0.00000000E+00
  0.00000000E+00  0.00000000E+00  0.00000000E+00
  0.00000000E+00  0.00000000E+00  0.00000000E+00
  0.00000000E+00  0.00000000E+00  0.00000000E+00
  0.00000000E+00  0.00000000E+00  0.00000000E+00
  0.00000000E+00  0.00000000E+00  0.00000000E+00
  0.00000000E+00  0.00000000E+00  0.00000000E+00
  0.00000000E+00  0.00000000E+00  0.00000000E+00
  0.00000000E+00  0.00000000E+00  0.00000000E+00
  0.00000000E+00  0.00000000E+00  0.00000000E+00
  0.00000000E+00  0.00000000E+00  0.00000000E+00
  0.00000000E+00  0.00000000E+00  0.00000000E+00
  0.00000000E+00  0.00000000E+00  0.00000000E+00
  0.00000000E+00  0.00000000E+00  0.00000000E+00
  0.00000000E+00  0.00000000E+00  0.00000000E+00
  0.00000000E+00  0.00000000E+00  0.00000000E+00
  0.00000000E+00  0.00000000E+00  0.00000000E+00
  0.00000000E+00  0.00000000E+00  0.00000000E+00
  0.00000000E+00  0.00000000E+00  0.00000000E+00
  0.00000000E+00  0.00000000E+00  0.00000000E+00
  0.00000000E+00  0.00000000E+00  0.00000000E+00
  0.00000000E+00  0.00000000E+00  0.00000000E+00
  0.00000000E+00  0.00000000E+00  0.00000000E+00
  0.00000000E+00  0.00000000E+00  0.00000000E+00
  0.00000000E+00  0.00000000E+00  0.00000000E+00
  0.00000000E+00  0.00000000E+00  0.00000000E+00
  0.00000000E+00  0.00000000E+00  0.00000000E+00
  0.00000000E+00  0.00000000E+00  0.00000000E+00
  0.00000000E+00  0.00000000E+00  0.00000000E+00
  0.00000000E+00  0.00000000E+00  0.00000000E+00
