POSCAR-clean
1.0
14.861163841369383 -0.0032735932060556 0.0
-7.430581920634749 12.754376365050048 0.0
0.0 0.0 15.0
C N C Cr
48 1 21 1
Cartesian
-7.4267104475 12.7529210161 0.0018400545
0.0032729978 1.4208656867 0.0029095729
2.484435404 0.0202238929 0.0003396679
2.4812824172 1.4430777759 0.0110488092
4.9531608151 0.0198631939 0.0033794689
4.9547234782 1.4433292233 0.0130444361
-0.0018603747 12.7455322717 0.0028725216
7.4313204546 1.4152503647 0.0019421089
2.4775156573 12.7235288673 0.0111354482
9.9103918802 1.3909909177 0.0003342967
4.9546463374 12.723285392 0.0128765545
12.3837466147 1.3914331926 0.0033053825
13.6184979926 2.1098164181 0.0045123392
-1.2465673846 3.5316221909 0.0146866722
1.2390840739 2.143726893 0.0124779689
1.23497335 3.5702885064 0.0381266491
3.7177470324 2.1686286859 0.0281002563
3.7176576127 3.5883848217 0.0739827927
6.1947675171 2.1407163353 0.0136835991
6.1977072575 3.5650894863 0.0381341405
8.677078444 2.1085329321 0.0
8.6834033104 3.5300583416 0.0075280945
11.146907391 2.1020867208 0.0014202013
11.1464181812 3.523455342 0.0034844998
12.379025958 4.236958114 0.0118407154
-2.4883708516 5.6589476396 0.0183639652
-0.0178409916 4.2512642595 0.0373229744
-0.0442189086 5.6709840607 0.0622773168
2.4724734027 4.3110276335 0.0881185281
2.4256274567 5.7242094539 0.1804369654
4.9610077193 4.306278067 0.089525638
5.0074108816 5.7198267499 0.1828261372
7.4503151233 4.2446553782 0.0320720656
7.4757964804 5.6602532891 0.0559875124
9.9178701517 4.2401840153 0.0057695738
9.9252375175 5.6672682163 0.0110519887
-3.7045111021 6.385105355 0.0114741777
-3.7014368415 7.8047328842 0.0119594384
-1.2778437683 6.3854225172 0.0412667664
-1.2817158786 7.8033075923 0.0423877289
1.1745178555 6.3697159434 0.115812543
1.1657378573 7.8007159441 0.1156187344
6.2556176091 6.3665220174 0.1161317027
6.2597570157 7.8017470569 0.1157558131
8.7045586311 6.374508311 0.030546108
8.7124670818 7.7930731083 0.0305976942
-4.9265545132 8.5152710298 0.0116663282
-4.9468746689 9.9365008082 0.0059791292
-2.4886952679 8.5098678711 0.0192833293
-2.481878552 9.9202449159 0.0118960635
-0.0542592641 8.5130383413 0.0621564974
-0.0134416657 9.9259620988 0.0366765109
2.4171733508 8.4463739305 0.1799752133
2.4712228019 9.8572536381 0.0884169868
5.0113017997 8.4485549112 0.1820134294
4.9616046539 9.859891302 0.0900251976
7.4816456301 8.5074429837 0.055522432
7.4509835794 9.9219579841 0.0315977486
-6.1768864532 10.6420530069 0.0074424896
-6.181490855 12.0618550368 3.27392e-05
-3.7106940791 10.6345220873 0.0034126363
-3.7071239836 12.0602628451 0.0014675029
-1.2517861597 10.6280708661 0.014452081
-1.249539703 12.0515199077 0.0045985111
1.233782226 10.601434164 0.0375315002
1.2366703757 12.0271764052 0.0124354094
3.7164519173 10.5786643532 0.0747266232
3.7164387327 11.9979042672 0.0281601509
6.1992400428 10.6015568451 0.0378571838
6.196527107 12.0256079754 0.0135060745
3.7212249404 7.083925638 0.8569254158