POSCAR-clean
1.0
14.8649094068 0.0036276382 0.0
-7.4324547033 12.7489017343 0.0
0.0 0.0 15.0
C N C Cr C O
56 1 13 1 1 1
Cartesian
7.4336875767 12.74379115 7.3491983192
0.0011012427 1.4165729701 7.3512452285
2.4800152799 0.0208172956 7.3486166911
2.4811828024 1.4431375923 7.3593151578
4.9526615952 0.0262426039 7.3502566987
4.9545440407 1.4475499421 7.3608886825
0.0011773817 12.7498992511 7.3513383569
7.4330995124 1.4256720784 7.3501207026
2.4850857606 12.7228320528 7.3594746608
9.9168056506 1.3957564855 7.3482727464
4.9591648631 12.7192288783 7.3605835329
12.388402212 1.3933957421 7.3506570821
13.6230185017 2.1128657911 7.3513936986
-1.2468572913 3.5284856296 7.3619754583
1.2382329842 2.1394917372 7.3615661197
1.2365855326 3.5624366471 7.385801597
3.7192576831 2.1712337896 7.3752138458
3.7212121677 3.5942657197 7.4198210222
6.1955527075 2.1500574589 7.3614301413
6.1969025599 3.5760353043 7.385180125
8.6798743095 2.1147615476 7.3482762992
8.6836600882 3.5332592274 7.3558912109
11.1513178595 2.1060940495 7.3486905243
11.1495684835 3.5301939718 7.3503775338
12.3815680425 4.2414897068 7.358222871
-2.4898407704 5.6597096718 7.3649961494
-0.0150682447 4.243696729 7.3871891187
-0.0405357585 5.6611418533 7.4153677184
2.4752610176 4.3039023093 7.4324561447
2.4304185721 5.7138407519 7.524512488
4.962486095 4.3271569339 7.4389962784
5.0114040048 5.7477211405 7.5389430305
7.4518841784 4.2495769861 7.378446871
7.477521539 5.6652384226 7.3980205339
9.9169869095 4.2451407764 7.3538807341
9.9229922692 5.6702468833 7.3593500468
11.1479650185 6.3781801404 7.3589268856
-3.7229624947 7.7940035597 7.3598548894
-1.2685839313 6.3741624673 7.3905266501
-1.2706720677 7.7942797982 7.3898639376
1.1808797444 6.3675966468 7.4652935512
1.1792874744 7.8006290945 7.463366773
6.2719915136 6.3789875433 7.4616945974
6.274881349 7.8129994091 7.4702137331
8.6966346532 6.3875978367 7.37638595
8.6948840966 7.8035556221 7.376630416
-4.9504812972 8.5121727064 7.3612080653
-4.9437644176 9.9299825588 7.3560447248
-2.4942057755 8.50851158 7.3656457248
-2.4834902598 9.9290196182 7.3582959083
-0.0420838853 8.5065394545 7.4127594995
-0.015015297 9.9224841877 7.386069045
2.4288850485 8.4534315351 7.5208565758
2.4766896041 9.8612096382 7.4341214987
5.0270921859 8.4413757653 7.5537888308
4.9625643776 9.8534590497 7.4408285651
7.4791192411 8.5058628607 7.3965149965
7.4533638099 9.909978016 7.376153335
-6.1844095758 10.6240808166 7.3576551365
-6.1910113613 12.0473611674 7.3491423082
-3.7159301999 10.6415898962 7.3508933026
-3.7158331573 12.0641846457 7.3485210506
-1.2477551597 10.6379541233 7.3615641094
-1.2432170907 12.0568065882 7.3514907843
1.2376491806 10.603404147 7.3865508915
1.2399956956 12.0258681619 7.362011494
3.7241045145 10.5750622291 7.4214663958
3.7222780376 11.998282998 7.3752121629
6.2030338349 10.5859890726 7.379336627
6.2030820064 12.0162495276 7.3582910138
3.6799257828 7.0838518664 8.2071719879
3.6799257828 7.0838518664 10.6871719879
3.3589118362 6.3580081737 11.5325091716