POSCAR-clean
1.0
14.8598008644 0.001585983 0.0
-7.4299004321 12.7560967618 0.0
0.0 0.0 15.0
C N C Cr C O
1 1 68 1 1 1
Cartesian
0.0021779055 0.0107910792 7.2548467134
0.0007612354 1.4213194262 7.2557901515
2.4829276965 0.0245216771 7.2521946659
2.466299178 1.4429503724 7.2627557621
4.9509695418 0.0283579455 7.2554551086
4.9477124898 1.4475493081 7.2649869083
7.4316184374 -0.0006568864 7.2552737632
7.4324800371 1.4217191289 7.2540646993
2.4812182438 12.7311733055 7.2630591048
9.9178764334 1.3946899774 7.2524137166
4.9519013267 12.7288278485 7.2651932048
12.3952160028 1.3909273722 7.2551985918
13.6298021521 2.1069480926 7.2565531855
-1.2381018772 3.5205569428 7.2665222532
1.2255014367 2.1370803661 7.2654811841
1.2255266206 3.5580905831 7.2902841586
3.7065727176 2.173485617 7.2799116429
3.7136463677 3.5895262902 7.3273253863
6.1923990018 2.145394236 7.2655722393
6.1969737732 3.5681117625 7.2901013852
8.6792828929 2.1125027312 7.2521824865
8.6820055163 3.5307118396 7.259864459
11.1568700861 2.1061773971 7.2534224523
11.1497956842 3.5252931148 7.2556193341
12.3811130416 4.2309992902 7.2640158827
-2.4862493389 5.6561541902 7.2710531524
-0.0157733886 4.2480456372 7.2892801994
-0.0415167828 5.6607417579 7.3143342629
2.4682314691 4.3001447539 7.3411691723
2.421942854 5.7146054569 7.4326874326
4.9588884293 4.3104667725 7.3430866233
5.0078106978 5.7223543219 7.4359717313
7.4488016949 4.2472541025 7.2841660342
7.4748191888 5.6638304343 7.3073173776
9.9165213233 4.2390225606 7.2579898759
9.9220586748 5.6621547321 7.263218979
-3.7120484713 6.3733804169 7.2637013398
-3.7134922607 7.7983469668 7.2635369984
-1.2693224228 6.3748831703 7.2939192742
-1.2680384833 7.7964676757 7.2938113825
1.1800814887 6.3669819516 7.3674743279
1.1796988963 7.8041000261 7.3677123414
6.2551359924 6.3708206665 7.3668383503
6.2555182053 7.8068482988 7.3671042306
8.700512138 6.3774021381 7.282586912
8.7000882964 7.8002280619 7.282559932
-4.9402104447 8.5154295505 7.2629862638
-4.9480217786 9.9408613052 7.2577939205
-2.489315788 8.512262359 7.2708229955
-2.4837609586 9.936238545 7.2640922356
-0.0402470136 8.5100811353 7.3146141363
-0.0151112846 9.9286666269 7.2894860584
2.4276800557 8.4523987629 7.4335227976
2.4753572612 9.8653533167 7.3400575767
5.009929182 8.4584263456 7.4385752754
4.9645242599 9.8717892069 7.3426246165
7.4741784028 8.5138469667 7.3074312249
7.449088766 9.9330020884 7.28408466
-6.1856337621 10.652136332 7.2596767047
-6.1873805471 12.0761654743 7.2521381132
-3.715344247 10.648809121 7.2555021713
-3.7151479725 12.0728181059 7.253478206
-1.2480589115 10.6454859396 7.2667609302
-1.2430948819 12.0647479234 7.2567139853
1.2369380572 10.6079157783 7.2900812494
1.2394165493 12.0318636679 7.2648992835
3.7190749623 10.5848145584 7.3264322689
3.7188589331 12.0062587615 7.2799922043
6.2038806391 10.61660931 7.2897912997
6.1992998036 12.0446565185 7.2660230325
3.7166961975 7.0893486296 8.1064910799
3.7166961975 7.0893486296 14.0864910799
3.3956822509 6.3635049369 14.9318282636