POSCAR-clean                            
   1.00000000000000     
    14.8591925695497409   -0.0097938459989895    0.0000000000000000
    -7.4295962847249353   12.7626307388120264    0.0000000000000000
     0.0000000000000000    0.0000000000000000   15.0000000000000000
   C    N    C    Cr
    64     1     5     1
Direct
 -0.0000888142710833  0.9996952830532491  0.4976760658563367
  0.0556646821729952  0.1112612841716696  0.4977346961087299
  0.1679576647126848  0.0017819447322798  0.4975304092103309
  0.2235496482883684  0.1132353456511903  0.4982708667430360
  0.3344050882132292  0.0017868339640059  0.4977262841231972
  0.3902084576120703  0.1132683337501790  0.4983727567744475
  0.4997393554762460  0.9989832823942600  0.4977255978697200
  0.5558676351662145  0.1107294011668321  0.4976801872083172
  0.6648339503690810  0.9968034424609911  0.4982974418070260
  0.7208250729021399  0.1086337982319468  0.4975783846260128
  0.8319666956866097  0.9976765111648817  0.4982646653691546
  0.8876883233280390  0.1091881122297175  0.4976767686202285
  0.9989818445972054  0.1655416928400340  0.4978003444469367
  0.0544185295175761  0.2769024927152476  0.4984933451808074
  0.1674674127883187  0.1681082488667441  0.4984179832165719
  0.2233166533886203  0.2799915006370388  0.5001637323140288
  0.3353030173258961  0.1700461480926399  0.4993547320868543
  0.3909612430691583  0.2813385446774440  0.5023532895454791
  0.5008759659091856  0.1675352338329328  0.4984348460978777
  0.5568149761350309  0.2792150804323590  0.5000392969198786
  0.6664792875825110  0.1651913554530508  0.4975423214853272
  0.7224930570694755  0.2765868321936120  0.4980666815646667
  0.8321740090424927  0.1645650503862884  0.4975973209275882
  0.8881077536157090  0.2761786279131263  0.4976891861863240
  0.9991674646482455  0.3323330509163545  0.4982389580593937
  0.0547807845609743  0.4441054441706230  0.4987113940132529
  0.1656371947638104  0.3332358034133147  0.5001067302404429
  0.2196097621932913  0.4443147929062306  0.5017248841192319
  0.3358080414261023  0.3383526981285529  0.5033379673935701
  0.3884246483899041  0.4492723899406753  0.5092011077939028
  0.5026602563158175  0.3373165152646155  0.5034025994880418
  0.5610284922782793  0.4480926699282327  0.5098815670282926
  0.6676891502327644  0.3327088375922259  0.4997901522239168
  0.7248586726386204  0.4438174551943426  0.5015134186928255
  0.8332867390369814  0.3321895204536641  0.4978910204753851
  0.8895843439949710  0.4438554534294958  0.4982514339704746
  0.0002301586252259  0.4999836297891981  0.4981929024640431
  0.0559301326687680  0.6113838993637787  0.4982224885240668
  0.1651213946366586  0.5003530643711609  0.5003281352218292
  0.2209529738881593  0.6120444160919783  0.5002095285049752
  0.3295633169171173  0.4999459817939351  0.5051281634415370
  0.3853704829510844  0.6121226995375388  0.5052762409720387
  0.6703715599037421  0.4991929957526102  0.5053599768084036
  0.7265554832018069  0.6118189162895052  0.5050869489007925
  0.8354848944599129  0.4998480511069316  0.4997254007172959
  0.8911940666238573  0.6113729666174862  0.4997064952680114
  0.0013790893033557  0.6673569986571627  0.4982795132360519
  0.0567965791457039  0.7788907379832555  0.4979061470445007
  0.1665874815942265  0.6674872816796135  0.4987330650965041
  0.2230287559409093  0.7788326961056856  0.4982799011389966
  0.3320299721563771  0.6681344027732270  0.5013239352955936
  0.3892029633817600  0.7790191695002253  0.4998088251677391
  0.4946308346237941  0.6640495399128474  0.5108492465394600
  0.5520840151851820  0.7738124311065934  0.5042109708455790
  0.6677763243661132  0.6625306620539931  0.5089524073458174
  0.7193556337059915  0.7731241164483593  0.5032740301718117
  0.8364280839080477  0.6672396807714290  0.5013628398792466
  0.8900377556576017  0.7782406023962161  0.4997036394008532
  0.0012956447654001  0.8343347761063015  0.4980589605606680
  0.0565740175405732  0.9454921460495838  0.4975390100392074
  0.1678893815989134  0.8347564214447303  0.4976991078632143
  0.2232673078153576  0.9460605532923245  0.4975775462110728
  0.3342343409629301  0.8346873196494007  0.4984584847815544
  0.3891875933009795  0.9457827825432834  0.4978335499178384
  0.4987186947441044  0.8320015521490379  0.4999657388503495
  0.5543324798736214  0.9422722780079652  0.4983678331433666
  0.6641182300536367  0.8301454686499699  0.5025517979676057
  0.7205282647437218  0.9409648019318538  0.4992981984436166
  0.8321717529984766  0.8314138108299296  0.5000140394123127
  0.8880925072473121  0.9428752668428423  0.4984424455340909
  0.5291509324489770  0.5558087721795594  0.5543940265156294
 
  0.00000000E+00  0.00000000E+00  0.00000000E+00
  0.00000000E+00  0.00000000E+00  0.00000000E+00
  0.00000000E+00  0.00000000E+00  0.00000000E+00
  0.00000000E+00  0.00000000E+00  0.00000000E+00
  0.00000000E+00  0.00000000E+00  0.00000000E+00
  0.00000000E+00  0.00000000E+00  0.00000000E+00
  0.00000000E+00  0.00000000E+00  0.00000000E+00
  0.00000000E+00  0.00000000E+00  0.00000000E+00
  0.00000000E+00  0.00000000E+00  0.00000000E+00
  0.00000000E+00  0.00000000E+00  0.00000000E+00
  0.00000000E+00  0.00000000E+00  0.00000000E+00
  0.00000000E+00  0.00000000E+00  0.00000000E+00
  0.00000000E+00  0.00000000E+00  0.00000000E+00
  0.00000000E+00  0.00000000E+00  0.00000000E+00
  0.00000000E+00  0.00000000E+00  0.00000000E+00
  0.00000000E+00  0.00000000E+00  0.00000000E+00
  0.00000000E+00  0.00000000E+00  0.00000000E+00
  0.00000000E+00  0.00000000E+00  0.00000000E+00
  0.00000000E+00  0.00000000E+00  0.00000000E+00
  0.00000000E+00  0.00000000E+00  0.00000000E+00
  0.00000000E+00  0.00000000E+00  0.00000000E+00
  0.00000000E+00  0.00000000E+00  0.00000000E+00
  0.00000000E+00  0.00000000E+00  0.00000000E+00
  0.00000000E+00  0.00000000E+00  0.00000000E+00
  0.00000000E+00  0.00000000E+00  0.00000000E+00
  0.00000000E+00  0.00000000E+00  0.00000000E+00
  0.00000000E+00  0.00000000E+00  0.00000000E+00
  0.00000000E+00  0.00000000E+00  0.00000000E+00
  0.00000000E+00  0.00000000E+00  0.00000000E+00
  0.00000000E+00  0.00000000E+00  0.00000000E+00
  0.00000000E+00  0.00000000E+00  0.00000000E+00
  0.00000000E+00  0.00000000E+00  0.00000000E+00
  0.00000000E+00  0.00000000E+00  0.00000000E+00
  0.00000000E+00  0.00000000E+00  0.00000000E+00
  0.00000000E+00  0.00000000E+00  0.00000000E+00
  0.00000000E+00  0.00000000E+00  0.00000000E+00
  0.00000000E+00  0.00000000E+00  0.00000000E+00
  0.00000000E+00  0.00000000E+00  0.00000000E+00
  0.00000000E+00  0.00000000E+00  0.00000000E+00
  0.00000000E+00  0.00000000E+00  0.00000000E+00
  0.00000000E+00  0.00000000E+00  0.00000000E+00
  0.00000000E+00  0.00000000E+00  0.00000000E+00
  0.00000000E+00  0.00000000E+00  0.00000000E+00
  0.00000000E+00  0.00000000E+00  0.00000000E+00
  0.00000000E+00  0.00000000E+00  0.00000000E+00
  0.00000000E+00  0.00000000E+00  0.00000000E+00
  0.00000000E+00  0.00000000E+00  0.00000000E+00
  0.00000000E+00  0.00000000E+00  0.00000000E+00
  0.00000000E+00  0.00000000E+00  0.00000000E+00
  0.00000000E+00  0.00000000E+00  0.00000000E+00
  0.00000000E+00  0.00000000E+00  0.00000000E+00
  0.00000000E+00  0.00000000E+00  0.00000000E+00
  0.00000000E+00  0.00000000E+00  0.00000000E+00
  0.00000000E+00  0.00000000E+00  0.00000000E+00
  0.00000000E+00  0.00000000E+00  0.00000000E+00
  0.00000000E+00  0.00000000E+00  0.00000000E+00
  0.00000000E+00  0.00000000E+00  0.00000000E+00
  0.00000000E+00  0.00000000E+00  0.00000000E+00
  0.00000000E+00  0.00000000E+00  0.00000000E+00
  0.00000000E+00  0.00000000E+00  0.00000000E+00
  0.00000000E+00  0.00000000E+00  0.00000000E+00
  0.00000000E+00  0.00000000E+00  0.00000000E+00
  0.00000000E+00  0.00000000E+00  0.00000000E+00
  0.00000000E+00  0.00000000E+00  0.00000000E+00
  0.00000000E+00  0.00000000E+00  0.00000000E+00
  0.00000000E+00  0.00000000E+00  0.00000000E+00
  0.00000000E+00  0.00000000E+00  0.00000000E+00
  0.00000000E+00  0.00000000E+00  0.00000000E+00
  0.00000000E+00  0.00000000E+00  0.00000000E+00
  0.00000000E+00  0.00000000E+00  0.00000000E+00
  0.00000000E+00  0.00000000E+00  0.00000000E+00
