POSCAR-clean                            
   1.00000000000000     
    14.8568849057701815    0.0000204971428544    0.0000000000000000
    -7.4284424528351627   12.7543188562644740    0.0000000000000000
     0.0000000000000000    0.0000000000000000   15.0000000000000000
   C    N    C    Cr
    67     1     2     1
Direct
  0.9994011170140514  0.9998965361922335  0.4976382441159860
  0.0555320264441544  0.1112556508810921  0.4977253906832133
  0.1678222049618286  0.0020245820094250  0.4975305670534084
  0.2235194167860960  0.1133551646823242  0.4982474785578863
  0.3344472504307295  0.0020100746705769  0.4977297861459646
  0.3900859966479580  0.1133377479759166  0.4983825093640866
  0.5007325347792725  0.9998651560746690  0.4977241662615897
  0.5559619706485006  0.1112242929169927  0.4976565647456209
  0.6664992732372425  0.9972535798997348  0.4983013296377601
  0.7219856405484203  0.1085139293325893  0.4975691388803865
  0.8310233677345202  0.9972701100562456  0.4984230293001955
  0.8867895704729993  0.1085280003289534  0.4977707041160494
  0.9985605730802766  0.1648856467150027  0.4978178480838536
  0.0540588875723390  0.2763111222792297  0.4984946876995562
  0.1672830795233946  0.1681016300690837  0.4983552506731005
  0.2229959831731575  0.2796779020447023  0.5000457940467858
  0.3352225609123582  0.1701823226910970  0.4994109526742401
  0.3908751451021085  0.2814829911704153  0.5025286543267073
  0.5010651864794402  0.1680777248492329  0.4984076341073045
  0.5569270149669657  0.2796592498333081  0.5000273655550728
  0.6665626964353860  0.1648629693277193  0.4975202490072932
  0.7224814597921880  0.2762910338785193  0.4980265266219335
  0.8326609713670644  0.1650745589697024  0.4976447976783716
  0.8882727505117957  0.2763098039192332  0.4977636266719752
  0.9991033221492578  0.3321793791572153  0.4983153506025735
  0.0544322637284310  0.4437161518534868  0.4987510229378094
  0.1652421123154126  0.3327507452286669  0.5000353996658728
  0.2192588528466686  0.4439557979666675  0.5018069348739748
  0.3355133202891445  0.3379858240715525  0.5033605387259339
  0.3879498316781663  0.4487750113661978  0.5093111651158198
  0.5027427777222661  0.3379903574200613  0.5035202790208326
  0.5611022004114461  0.4487844817264585  0.5096216602714506
  0.6677441337116315  0.3327362194069075  0.4996735527931537
  0.7249210824770127  0.4439488252118130  0.5013144767390255
  0.8333034162120870  0.3321698815724713  0.4979019001651547
  0.8895009997651596  0.4437122989191120  0.4982312536095008
  0.9999770427765503  0.4997387168059930  0.4982738524517180
  0.0557807999588259  0.6113494510405794  0.4982820733192743
  0.1647212207910113  0.4998477846624171  0.5003298267294770
  0.2204930541806886  0.6112666078765425  0.5003057021977753
  0.3293334620714088  0.4996800642100578  0.5052217713972974
  0.3857857668541536  0.6121520899790404  0.5051626254377072
  0.6706034574838470  0.4996783603865911  0.5051907657368379
  0.7266240724098948  0.6121527679375790  0.5051344544851747
  0.8353452549690211  0.4998470439262292  0.4995703463053131
  0.8909899844935651  0.6112657745300168  0.4995470904781064
  0.0013085779639769  0.6674118086193701  0.4982429032713868
  0.0567237791804560  0.7789778476173677  0.4979060919958752
  0.1663148255701698  0.6674062854991588  0.4987617104866954
  0.2224758454309458  0.7789674474749196  0.4983149161459537
  0.3310812701500195  0.6671567938808428  0.5016944277382140
  0.3882386510899013  0.7783603603621613  0.4999909121288709
  0.4958306242728137  0.6631029118683458  0.5096078181857659
  0.5537669923676041  0.7742262236025051  0.5033241581701842
  0.6675443485932662  0.6630972125886315  0.5099316367635824
  0.7207306145596902  0.7742237120449029  0.5034908487960982
  0.8363040314891594  0.6671622918016579  0.5012035428529147
  0.8903725157203577  0.7783747973688607  0.4996237757239133
  0.0013407729855892  0.8345909316234367  0.4980280442929060
  0.0562573266849472  0.9456950457234942  0.4975211606785325
  0.1675578114916378  0.8348852384540890  0.4977463771819183
  0.2232879717429963  0.9463317091062919  0.4976102529606503
  0.3334764052952068  0.8345704162434610  0.4984885343907381
  0.3896739048431490  0.9456716982832395  0.4978168160426766
  0.4988600073999656  0.8314117187859312  0.4999686235641947
  0.5555913817951135  0.9426467094715560  0.4983549328938849
  0.6655000854848266  0.8307269301155250  0.5025360940146250
  0.7207204907448708  0.9411773009343306  0.4994710201914971
  0.8328169014177091  0.8314309725380324  0.4999330168029089
  0.8873255709413865  0.9426712771892897  0.4983846837360259
  0.5278843459832705  0.5558068449085042  0.5551033409351172
 
  0.00000000E+00  0.00000000E+00  0.00000000E+00
  0.00000000E+00  0.00000000E+00  0.00000000E+00
  0.00000000E+00  0.00000000E+00  0.00000000E+00
  0.00000000E+00  0.00000000E+00  0.00000000E+00
  0.00000000E+00  0.00000000E+00  0.00000000E+00
  0.00000000E+00  0.00000000E+00  0.00000000E+00
  0.00000000E+00  0.00000000E+00  0.00000000E+00
  0.00000000E+00  0.00000000E+00  0.00000000E+00
  0.00000000E+00  0.00000000E+00  0.00000000E+00
  0.00000000E+00  0.00000000E+00  0.00000000E+00
  0.00000000E+00  0.00000000E+00  0.00000000E+00
  0.00000000E+00  0.00000000E+00  0.00000000E+00
  0.00000000E+00  0.00000000E+00  0.00000000E+00
  0.00000000E+00  0.00000000E+00  0.00000000E+00
  0.00000000E+00  0.00000000E+00  0.00000000E+00
  0.00000000E+00  0.00000000E+00  0.00000000E+00
  0.00000000E+00  0.00000000E+00  0.00000000E+00
  0.00000000E+00  0.00000000E+00  0.00000000E+00
  0.00000000E+00  0.00000000E+00  0.00000000E+00
  0.00000000E+00  0.00000000E+00  0.00000000E+00
  0.00000000E+00  0.00000000E+00  0.00000000E+00
  0.00000000E+00  0.00000000E+00  0.00000000E+00
  0.00000000E+00  0.00000000E+00  0.00000000E+00
  0.00000000E+00  0.00000000E+00  0.00000000E+00
  0.00000000E+00  0.00000000E+00  0.00000000E+00
  0.00000000E+00  0.00000000E+00  0.00000000E+00
  0.00000000E+00  0.00000000E+00  0.00000000E+00
  0.00000000E+00  0.00000000E+00  0.00000000E+00
  0.00000000E+00  0.00000000E+00  0.00000000E+00
  0.00000000E+00  0.00000000E+00  0.00000000E+00
  0.00000000E+00  0.00000000E+00  0.00000000E+00
  0.00000000E+00  0.00000000E+00  0.00000000E+00
  0.00000000E+00  0.00000000E+00  0.00000000E+00
  0.00000000E+00  0.00000000E+00  0.00000000E+00
  0.00000000E+00  0.00000000E+00  0.00000000E+00
  0.00000000E+00  0.00000000E+00  0.00000000E+00
  0.00000000E+00  0.00000000E+00  0.00000000E+00
  0.00000000E+00  0.00000000E+00  0.00000000E+00
  0.00000000E+00  0.00000000E+00  0.00000000E+00
  0.00000000E+00  0.00000000E+00  0.00000000E+00
  0.00000000E+00  0.00000000E+00  0.00000000E+00
  0.00000000E+00  0.00000000E+00  0.00000000E+00
  0.00000000E+00  0.00000000E+00  0.00000000E+00
  0.00000000E+00  0.00000000E+00  0.00000000E+00
  0.00000000E+00  0.00000000E+00  0.00000000E+00
  0.00000000E+00  0.00000000E+00  0.00000000E+00
  0.00000000E+00  0.00000000E+00  0.00000000E+00
  0.00000000E+00  0.00000000E+00  0.00000000E+00
  0.00000000E+00  0.00000000E+00  0.00000000E+00
  0.00000000E+00  0.00000000E+00  0.00000000E+00
  0.00000000E+00  0.00000000E+00  0.00000000E+00
  0.00000000E+00  0.00000000E+00  0.00000000E+00
  0.00000000E+00  0.00000000E+00  0.00000000E+00
  0.00000000E+00  0.00000000E+00  0.00000000E+00
  0.00000000E+00  0.00000000E+00  0.00000000E+00
  0.00000000E+00  0.00000000E+00  0.00000000E+00
  0.00000000E+00  0.00000000E+00  0.00000000E+00
  0.00000000E+00  0.00000000E+00  0.00000000E+00
  0.00000000E+00  0.00000000E+00  0.00000000E+00
  0.00000000E+00  0.00000000E+00  0.00000000E+00
  0.00000000E+00  0.00000000E+00  0.00000000E+00
  0.00000000E+00  0.00000000E+00  0.00000000E+00
  0.00000000E+00  0.00000000E+00  0.00000000E+00
  0.00000000E+00  0.00000000E+00  0.00000000E+00
  0.00000000E+00  0.00000000E+00  0.00000000E+00
  0.00000000E+00  0.00000000E+00  0.00000000E+00
  0.00000000E+00  0.00000000E+00  0.00000000E+00
  0.00000000E+00  0.00000000E+00  0.00000000E+00
  0.00000000E+00  0.00000000E+00  0.00000000E+00
  0.00000000E+00  0.00000000E+00  0.00000000E+00
  0.00000000E+00  0.00000000E+00  0.00000000E+00
