POSCAR-c3n4                             
   1.1399999999999999     
    13.8434242346000005   -0.1907404740000000    0.0000000000000000
    -6.9217121174000003   11.6951909939000007    0.0000000000000000
     0.0000000000000000    0.0000000000000000   15.0000000000000000
   C    N    Ge   C    O 
    24    32     1     1     1
Direct
 -0.0108556294173110  0.1508327804286269  0.5082119089166622
  0.3706258437875880  0.3631867239667196  0.3667454918751280
  0.0158745715024494  0.3250843189052063  0.5130111740528185
  0.5291717180013418  0.1009577909305568  0.5454891294945986
  0.5091573577733499  0.3735506007766470  0.4101919368019106
  0.0162290092949749  0.0210125932162644  0.4912248219680730
  0.0601761695711165  0.7459954318138180  0.4727906960698186
  0.4031944327869917  0.9493857969856160  0.5834402428667181
  0.0327059182048401  0.8809752929941423  0.4923585869136499
  0.4676042589202769  0.5036727321449254  0.4365182382430041
  0.5399743875499435  0.9482175349289063  0.5510522849961416
  0.1094920944213749  0.6284473595266470  0.4906743591708409
  0.6615242950488810  0.2430300890291910  0.4943860159118387
  0.8099356643697613  0.4157910462383398  0.4794027171268608
  0.6420133958440420  0.3894531950795467  0.4743787404626669
  0.8514111104588457  0.9937315632959595  0.5120636752332737
  0.9651463799987459  0.4451578333979838  0.5014308756891978
  0.6700879316082208  0.1004743913752277  0.4876462579685751
  0.5854225505379667  0.6484156832321316  0.4985489991536460
  0.7149098557909357  0.8149524870707662  0.5196671833510114
  0.6837437101810786  0.9632621769973811  0.5107173646339087
  0.9375168273045076  0.5784910577043316  0.4612269765208724
  0.8779853541084606  0.8521427868198740  0.5224134264444081
  0.6105731179672239  0.5145317382772545  0.4989256261614409
  0.0272800172723896  0.2539411912582574  0.5136275655624302
  0.0528493450720893  0.1225911629444283  0.4915826667355608
  0.4369782515613368  0.0456469542857667  0.5760697799555453
  0.5707166723566804  0.3397544490067176  0.4210654339120179
  0.4275173641835961  0.3246844694636880  0.3651772184198328
  0.5736338039501488  0.1992566757350299  0.5316587632207366
  0.0728813068427935  0.9836206996883299  0.4808943012486262
  0.9121103110515942  0.9549493299310217  0.5033147045767452
  0.0907348238995841  0.8444685280996200  0.4770442072777409
  0.1316452291645805  0.7232837034721012  0.4872162910887389
  0.3803407960841645  0.4445410746924135  0.3981353603382245
  0.5979224088311228  0.9095006686325418  0.5491948221470777
  0.4441756603477390  0.8945101255781026  0.5746925149367473
  0.4952885815368386  0.5950582954372985  0.4619532687688460
  0.1784601961307935  0.6050136424756044  0.4988516776905924
  0.0056487533290962  0.5480356974868963  0.4859950665180413
  0.7064602071273376  0.3484549899284669  0.4838747317785655
  0.7078236310806498  0.1970726099107694  0.4670151127374522
  0.7488912385408230  0.9247574609626060  0.5130641667299610
  0.0282119412962585  0.4107921174996014  0.5117919687452945
  0.8685940684491488  0.3817717387874642  0.5056683430753677
  0.8894993802406348  0.0915988732464189  0.5200632079016395
  0.7160460933884661  0.0500528115192681  0.4719062357084235
  0.5794440325865688  0.0497407377862981  0.5290161817787774
  0.6208815183124724  0.7498185181134300  0.5035691119020801
  0.6343757444316233  0.6039301216672337  0.5266203625668131
  0.8407988722386472  0.5061029147622571  0.4504159744322498
  0.9401951729317943  0.8201546338380755  0.5238146300878895
  0.7819291940078310  0.7912594860511837  0.5358563869074666
  0.9659108648494803  0.6735789385770519  0.4506370190011920
  0.6623965531616107  0.4694178529750048  0.5169241245543912
  0.5296139560988148  0.4637478326424694  0.4467785689703387
  0.3036436937323889  0.6474671246265702  0.5097231222797571
  0.2805424287652935  0.6187239266686150  0.6703563969160986
  0.2530588431229748  0.5672701487585823  0.7239139813750126

  0.00000000E+00  0.00000000E+00  0.00000000E+00
  0.00000000E+00  0.00000000E+00  0.00000000E+00
  0.00000000E+00  0.00000000E+00  0.00000000E+00
  0.00000000E+00  0.00000000E+00  0.00000000E+00
  0.00000000E+00  0.00000000E+00  0.00000000E+00
  0.00000000E+00  0.00000000E+00  0.00000000E+00
  0.00000000E+00  0.00000000E+00  0.00000000E+00
  0.00000000E+00  0.00000000E+00  0.00000000E+00
  0.00000000E+00  0.00000000E+00  0.00000000E+00
  0.00000000E+00  0.00000000E+00  0.00000000E+00
  0.00000000E+00  0.00000000E+00  0.00000000E+00
  0.00000000E+00  0.00000000E+00  0.00000000E+00
  0.00000000E+00  0.00000000E+00  0.00000000E+00
  0.00000000E+00  0.00000000E+00  0.00000000E+00
  0.00000000E+00  0.00000000E+00  0.00000000E+00
  0.00000000E+00  0.00000000E+00  0.00000000E+00
  0.00000000E+00  0.00000000E+00  0.00000000E+00
  0.00000000E+00  0.00000000E+00  0.00000000E+00
  0.00000000E+00  0.00000000E+00  0.00000000E+00
  0.00000000E+00  0.00000000E+00  0.00000000E+00
  0.00000000E+00  0.00000000E+00  0.00000000E+00
  0.00000000E+00  0.00000000E+00  0.00000000E+00
  0.00000000E+00  0.00000000E+00  0.00000000E+00
  0.00000000E+00  0.00000000E+00  0.00000000E+00
  0.00000000E+00  0.00000000E+00  0.00000000E+00
  0.00000000E+00  0.00000000E+00  0.00000000E+00
  0.00000000E+00  0.00000000E+00  0.00000000E+00
  0.00000000E+00  0.00000000E+00  0.00000000E+00
  0.00000000E+00  0.00000000E+00  0.00000000E+00
  0.00000000E+00  0.00000000E+00  0.00000000E+00
  0.00000000E+00  0.00000000E+00  0.00000000E+00
  0.00000000E+00  0.00000000E+00  0.00000000E+00
  0.00000000E+00  0.00000000E+00  0.00000000E+00
  0.00000000E+00  0.00000000E+00  0.00000000E+00
  0.00000000E+00  0.00000000E+00  0.00000000E+00
  0.00000000E+00  0.00000000E+00  0.00000000E+00
  0.00000000E+00  0.00000000E+00  0.00000000E+00
  0.00000000E+00  0.00000000E+00  0.00000000E+00
  0.00000000E+00  0.00000000E+00  0.00000000E+00
  0.00000000E+00  0.00000000E+00  0.00000000E+00
  0.00000000E+00  0.00000000E+00  0.00000000E+00
  0.00000000E+00  0.00000000E+00  0.00000000E+00
  0.00000000E+00  0.00000000E+00  0.00000000E+00
  0.00000000E+00  0.00000000E+00  0.00000000E+00
  0.00000000E+00  0.00000000E+00  0.00000000E+00
  0.00000000E+00  0.00000000E+00  0.00000000E+00
  0.00000000E+00  0.00000000E+00  0.00000000E+00
  0.00000000E+00  0.00000000E+00  0.00000000E+00
  0.00000000E+00  0.00000000E+00  0.00000000E+00
  0.00000000E+00  0.00000000E+00  0.00000000E+00
  0.00000000E+00  0.00000000E+00  0.00000000E+00
  0.00000000E+00  0.00000000E+00  0.00000000E+00
  0.00000000E+00  0.00000000E+00  0.00000000E+00
  0.00000000E+00  0.00000000E+00  0.00000000E+00
  0.00000000E+00  0.00000000E+00  0.00000000E+00
  0.00000000E+00  0.00000000E+00  0.00000000E+00
  0.00000000E+00  0.00000000E+00  0.00000000E+00
  0.00000000E+00  0.00000000E+00  0.00000000E+00
  0.00000000E+00  0.00000000E+00  0.00000000E+00
