POSCAR-c3n4                             
   1.1399999999999999     
    13.8434242346000005   -0.1907404740000000    0.0000000000000000
    -6.9217121174000003   11.6951909939000007    0.0000000000000000
     0.0000000000000000    0.0000000000000000   15.0000000000000000
   C    N    Ge   C    O 
    24    32     1     1     1
Direct
  0.0214995726384615  0.1534467419090411  0.4741252573228446
  0.3631139755945301  0.3864662556472928  0.4341741369911177
  0.0262159492775707  0.3138064023200985  0.4721621802078430
  0.4866066035395221  0.1025952216637339  0.4934731523539497
  0.5075001270329641  0.3965451284322846  0.4356528328384944
  0.0517516412292119  0.0243446962570800  0.4803205295343752
  0.0721743604038255  0.7347111246507562  0.4737564677821807
  0.3444612981922096  0.9545217749551835  0.4824342780116372
  0.0630239560883107  0.8822734904035597  0.4936120243886142
  0.4789126988442296  0.5261675406218215  0.4943038487268724
  0.4718589828206339  0.9364188022227325  0.5049188529577180
  0.1079205734316372  0.6056306848736911  0.4843060044421997
  0.6421425328115061  0.2435774404590578  0.4919585909145194
  0.8054997942076653  0.4090258659856607  0.4686408032821816
  0.6461280864316109  0.4020620947055085  0.4741086525497444
  0.8853925104182157 -0.0018088028992100  0.4982853473659870
  0.9572678764046978  0.4251640743899569  0.4751952131166112
  0.6332554864462842  0.0948595701368322  0.5176276626116222
  0.6196022838913414  0.6730060009896741  0.5340330156606946
  0.7599499621487817  0.8383479278958754  0.5337060379610143
  0.6093977132087656  0.9422719444337690  0.5427202325169419
  0.9391259709512750  0.5707688253118967  0.4601872595894650
  0.9175626958662593  0.8662979077073436  0.5335912349638042
  0.6326289946736356  0.5326093207152056  0.5172313107511550
  0.0597269269776548  0.2581193023769048  0.4691239242458951
  0.0879980933576453  0.1249033899702779  0.4697429208755798
  0.3860296048719425  0.0508452857083728  0.4857427100967944
  0.5695999164811356  0.3648709470266398  0.4233541396716290
  0.4121948134528329  0.3465477058088501  0.4091415170971325
  0.5424745894993493  0.2017309066376577  0.4923416873724525
  0.1058199457534337  0.9821713122645200  0.4718920096586375
 -0.0489491957343042 -0.0370935798067014  0.5022051815827749
  0.1130483105148894  0.8354258069878220  0.4765130474008476
  0.1375289838055116  0.7023421824239772  0.4845899667476408
  0.3797071933753450  0.4648281789659394  0.4723689965660332
  0.5153155515121496  0.8843919953967205  0.5242207948167361
  0.3738758280830906  0.8905512101011657  0.4886836184353985
  0.5164177899234228  0.6156565734151799  0.5237978624237853
  0.1711492341117895  0.5744537339239568  0.4943723224130109
  0.0022120823681611  0.5307516936565255  0.4745010852403794
  0.6994157633747142  0.3479865329806044  0.4765419035889716
  0.6883949186543499  0.1939007617420087  0.5079819887147924
  0.7889426299895484  0.9342267874189454  0.5100122655730762
  0.0166299970338784  0.3872616136415983  0.4743622909026290
  0.8595123162993697  0.3644292283560526  0.4761821557988031
 -0.0771537697660824  0.0965656558328357  0.4827606228676465
  0.6711301676793751  0.0387801164169896  0.5417844221591830
  0.5299034685489689  0.0428832483013533  0.5032564180263127
  0.6592466616738127  0.7720029360975346  0.5326419721927514
  0.6712284547560565  0.6242364859925152  0.5436493685730440
  0.8402203678951945  0.5045377218250654  0.4518248479981522
 -0.0216886991336093  0.8314512638606557  0.5364010106935690
  0.8232575590557032  0.8094968867889132  0.5562439781785685
 -0.0265660602738440  0.6680951083391140  0.4568817264787904
  0.6769675598310680  0.4775359930637376  0.5233461399592102
  0.5383074025341975  0.4837929083579233  0.4800545133057396
  0.2892419890915659  0.6028262237056623  0.5197073320353043
  0.2617812326882228  0.5708740456259145  0.7140907124744735
  0.2542060067533100  0.5508323146511797  0.7791596188660190

  0.00000000E+00  0.00000000E+00  0.00000000E+00
  0.00000000E+00  0.00000000E+00  0.00000000E+00
  0.00000000E+00  0.00000000E+00  0.00000000E+00
  0.00000000E+00  0.00000000E+00  0.00000000E+00
  0.00000000E+00  0.00000000E+00  0.00000000E+00
  0.00000000E+00  0.00000000E+00  0.00000000E+00
  0.00000000E+00  0.00000000E+00  0.00000000E+00
  0.00000000E+00  0.00000000E+00  0.00000000E+00
  0.00000000E+00  0.00000000E+00  0.00000000E+00
  0.00000000E+00  0.00000000E+00  0.00000000E+00
  0.00000000E+00  0.00000000E+00  0.00000000E+00
  0.00000000E+00  0.00000000E+00  0.00000000E+00
  0.00000000E+00  0.00000000E+00  0.00000000E+00
  0.00000000E+00  0.00000000E+00  0.00000000E+00
  0.00000000E+00  0.00000000E+00  0.00000000E+00
  0.00000000E+00  0.00000000E+00  0.00000000E+00
  0.00000000E+00  0.00000000E+00  0.00000000E+00
  0.00000000E+00  0.00000000E+00  0.00000000E+00
  0.00000000E+00  0.00000000E+00  0.00000000E+00
  0.00000000E+00  0.00000000E+00  0.00000000E+00
  0.00000000E+00  0.00000000E+00  0.00000000E+00
  0.00000000E+00  0.00000000E+00  0.00000000E+00
  0.00000000E+00  0.00000000E+00  0.00000000E+00
  0.00000000E+00  0.00000000E+00  0.00000000E+00
  0.00000000E+00  0.00000000E+00  0.00000000E+00
  0.00000000E+00  0.00000000E+00  0.00000000E+00
  0.00000000E+00  0.00000000E+00  0.00000000E+00
  0.00000000E+00  0.00000000E+00  0.00000000E+00
  0.00000000E+00  0.00000000E+00  0.00000000E+00
  0.00000000E+00  0.00000000E+00  0.00000000E+00
  0.00000000E+00  0.00000000E+00  0.00000000E+00
  0.00000000E+00  0.00000000E+00  0.00000000E+00
  0.00000000E+00  0.00000000E+00  0.00000000E+00
  0.00000000E+00  0.00000000E+00  0.00000000E+00
  0.00000000E+00  0.00000000E+00  0.00000000E+00
  0.00000000E+00  0.00000000E+00  0.00000000E+00
  0.00000000E+00  0.00000000E+00  0.00000000E+00
  0.00000000E+00  0.00000000E+00  0.00000000E+00
  0.00000000E+00  0.00000000E+00  0.00000000E+00
  0.00000000E+00  0.00000000E+00  0.00000000E+00
  0.00000000E+00  0.00000000E+00  0.00000000E+00
  0.00000000E+00  0.00000000E+00  0.00000000E+00
  0.00000000E+00  0.00000000E+00  0.00000000E+00
  0.00000000E+00  0.00000000E+00  0.00000000E+00
  0.00000000E+00  0.00000000E+00  0.00000000E+00
  0.00000000E+00  0.00000000E+00  0.00000000E+00
  0.00000000E+00  0.00000000E+00  0.00000000E+00
  0.00000000E+00  0.00000000E+00  0.00000000E+00
  0.00000000E+00  0.00000000E+00  0.00000000E+00
  0.00000000E+00  0.00000000E+00  0.00000000E+00
  0.00000000E+00  0.00000000E+00  0.00000000E+00
  0.00000000E+00  0.00000000E+00  0.00000000E+00
  0.00000000E+00  0.00000000E+00  0.00000000E+00
  0.00000000E+00  0.00000000E+00  0.00000000E+00
  0.00000000E+00  0.00000000E+00  0.00000000E+00
  0.00000000E+00  0.00000000E+00  0.00000000E+00
  0.00000000E+00  0.00000000E+00  0.00000000E+00
  0.00000000E+00  0.00000000E+00  0.00000000E+00
  0.00000000E+00  0.00000000E+00  0.00000000E+00
