POSCAR-c3n4                             
   1.1799999999999999     
    13.8434242346000023   -0.1907404740000000    0.0000000000000000
    -6.9217121174000003   11.6951909939000007    0.0000000000000000
     0.0000000000000000    0.0000000000000000   15.0000000000000000
   C    N    Ge   C    O 
    24    32     1     1     1
Direct
  0.0736381198074216  0.1463147579540910  0.4818856131281234
  0.3417386254156171  0.4492151430026785  0.4645913086552804
  0.0839903972869454  0.4107336376002294  0.4643078838912278
  0.4966773330752567  0.0919773232661167  0.4939572819204264
  0.4660657927975639  0.4284373398632256  0.4695079550136241
  0.0709585479641513  0.0007174560841918  0.4841692867024959
  0.0598376765935229  0.6970686496885080  0.4913663809530485
  0.3537817622005334  0.9519608343816249  0.4990703410622389
  0.0523705125916431  0.8455715515027307  0.4969280659532435
  0.4805258291387305  0.5886701623559640  0.4922168999326815
  0.4767078825078290  0.9291626340749028  0.5096721691895345
  0.0777120329815169  0.5531614607637959  0.4831308052396401
  0.6486082316779830  0.2288624528084426  0.4926548909177595
  0.7924306477707452  0.3817264259169801  0.4713079759585491
  0.5995668379433514  0.4301184062793273  0.4822540408695243
  0.9254312126092933  0.0104577782320474  0.4936412819162995
  0.9362262947428712  0.3908051361336030  0.4582888926565842
  0.6383010365520742  0.0809450362142752  0.5094273421054129
  0.6308644537333715  0.7256834906650614  0.5078566979937328
  0.7835458860097931  0.8700845803992914  0.5157058421507195
  0.6099366225674790  0.9297188039040875  0.5151027975620791
  0.9243204686727755  0.5348985869161862  0.4794192866208363
  0.9169481128947543  0.8568013778225748  0.5156151903882271
  0.6226033298298295  0.5778092120227984  0.4957011664737761
  0.1260421980270318  0.2453489165205170  0.4815735719331782
  0.1226004007578111  0.0984993697481610  0.4774622189838309
  0.3992061159178548  0.0451670553488110  0.4912133540461873
  0.5099181600154055  0.3764801088684318  0.4648445462362130
  0.3723105102424896  0.3893735858528936  0.4569364696017181
  0.5512734273891793  0.1865571018805044  0.4869062341695734
  0.1096085721580298  0.9442956611789496  0.4830803878764807
 -0.0301329185865109 -0.0444754246440030  0.4942314586479080
  0.1000895735487843  0.7919124312030807  0.4950360914282813
  0.1236723658757786  0.6489020046080649  0.4921530555802773
  0.3821339737340153  0.5412716057303449  0.4816076652352336
  0.5189025609097208  0.8744462267328204  0.5161264473046238
  0.3816513510656602  0.8879323383842789  0.5085324319029301
  0.5323708626693393  0.6821648828783221  0.5051556180803186
  0.1314318765598270  0.5074823489224304  0.4801490395853258
  0.9813649655379073  0.4913692809816751  0.4772592615105013
  0.6974706638656155  0.3250965676403862  0.4829021769432262
  0.6917327596960924  0.1750616006168858  0.5090855301425556
  0.8297649177848422  0.9650720286349175  0.4985780609844796
 -0.0050073558395113  0.3538807558469267  0.4509504790654910
  0.8437985412726607  0.3383119594622011  0.4505803536311759
 -0.0227021320964495  0.1067039588994580  0.4877858975898793
  0.6745540515293782  0.0187806551675857  0.5136171380551623
  0.5363351475712028  0.0310285595194451  0.5038916761679585
  0.6831779508391582  0.8228357296369251  0.5147973867356080
  0.6735821983850609  0.6709780903442321  0.5016846127194413
  0.8296370913659643  0.4774079307361431  0.4790561021250349
 -0.0412165276861689  0.8039258788199115  0.5171136009653851
  0.8246061906197107  0.8186817946420457  0.5346297627942932
 -0.0347136825729308  0.6304935169365021  0.4844063334644980
  0.6612331779370786  0.5179000487037713  0.4974314748096423
  0.5212929008255354  0.5283996053790807  0.4871794152360831
  0.2575506858082285  0.6254589135710114  0.5083324133065416
  0.2674039682805107  0.5695022628777970  0.7286879694069731
  0.2463890908196384  0.5481729221620154  0.7892423663522770

  0.00000000E+00  0.00000000E+00  0.00000000E+00
  0.00000000E+00  0.00000000E+00  0.00000000E+00
  0.00000000E+00  0.00000000E+00  0.00000000E+00
  0.00000000E+00  0.00000000E+00  0.00000000E+00
  0.00000000E+00  0.00000000E+00  0.00000000E+00
  0.00000000E+00  0.00000000E+00  0.00000000E+00
  0.00000000E+00  0.00000000E+00  0.00000000E+00
  0.00000000E+00  0.00000000E+00  0.00000000E+00
  0.00000000E+00  0.00000000E+00  0.00000000E+00
  0.00000000E+00  0.00000000E+00  0.00000000E+00
  0.00000000E+00  0.00000000E+00  0.00000000E+00
  0.00000000E+00  0.00000000E+00  0.00000000E+00
  0.00000000E+00  0.00000000E+00  0.00000000E+00
  0.00000000E+00  0.00000000E+00  0.00000000E+00
  0.00000000E+00  0.00000000E+00  0.00000000E+00
  0.00000000E+00  0.00000000E+00  0.00000000E+00
  0.00000000E+00  0.00000000E+00  0.00000000E+00
  0.00000000E+00  0.00000000E+00  0.00000000E+00
  0.00000000E+00  0.00000000E+00  0.00000000E+00
  0.00000000E+00  0.00000000E+00  0.00000000E+00
  0.00000000E+00  0.00000000E+00  0.00000000E+00
  0.00000000E+00  0.00000000E+00  0.00000000E+00
  0.00000000E+00  0.00000000E+00  0.00000000E+00
  0.00000000E+00  0.00000000E+00  0.00000000E+00
  0.00000000E+00  0.00000000E+00  0.00000000E+00
  0.00000000E+00  0.00000000E+00  0.00000000E+00
  0.00000000E+00  0.00000000E+00  0.00000000E+00
  0.00000000E+00  0.00000000E+00  0.00000000E+00
  0.00000000E+00  0.00000000E+00  0.00000000E+00
  0.00000000E+00  0.00000000E+00  0.00000000E+00
  0.00000000E+00  0.00000000E+00  0.00000000E+00
  0.00000000E+00  0.00000000E+00  0.00000000E+00
  0.00000000E+00  0.00000000E+00  0.00000000E+00
  0.00000000E+00  0.00000000E+00  0.00000000E+00
  0.00000000E+00  0.00000000E+00  0.00000000E+00
  0.00000000E+00  0.00000000E+00  0.00000000E+00
  0.00000000E+00  0.00000000E+00  0.00000000E+00
  0.00000000E+00  0.00000000E+00  0.00000000E+00
  0.00000000E+00  0.00000000E+00  0.00000000E+00
  0.00000000E+00  0.00000000E+00  0.00000000E+00
  0.00000000E+00  0.00000000E+00  0.00000000E+00
  0.00000000E+00  0.00000000E+00  0.00000000E+00
  0.00000000E+00  0.00000000E+00  0.00000000E+00
  0.00000000E+00  0.00000000E+00  0.00000000E+00
  0.00000000E+00  0.00000000E+00  0.00000000E+00
  0.00000000E+00  0.00000000E+00  0.00000000E+00
  0.00000000E+00  0.00000000E+00  0.00000000E+00
  0.00000000E+00  0.00000000E+00  0.00000000E+00
  0.00000000E+00  0.00000000E+00  0.00000000E+00
  0.00000000E+00  0.00000000E+00  0.00000000E+00
  0.00000000E+00  0.00000000E+00  0.00000000E+00
  0.00000000E+00  0.00000000E+00  0.00000000E+00
  0.00000000E+00  0.00000000E+00  0.00000000E+00
  0.00000000E+00  0.00000000E+00  0.00000000E+00
  0.00000000E+00  0.00000000E+00  0.00000000E+00
  0.00000000E+00  0.00000000E+00  0.00000000E+00
  0.00000000E+00  0.00000000E+00  0.00000000E+00
  0.00000000E+00  0.00000000E+00  0.00000000E+00
  0.00000000E+00  0.00000000E+00  0.00000000E+00
