POSCAR-clean
1.0
14.860178903743032 -0.0031452180979795 0.0
-7.430089451821578 12.75014799220969 0.0
0.0 0.0 15.0
C N C Cr
32 1 37 1
Cartesian
7.4307523337 12.7424422483 0.0023096744
0.0017192626 1.418716611 0.0037073583
2.4826152794 0.0241636418 0.0
2.4831220518 1.4448741528 0.010250287
4.9552368002 0.0294740329 0.0017356628
4.9571836775 1.4522006723 0.0106233574
7.4319059756 0.0001409189 0.0039319516
7.4310889635 1.4192028811 0.001912206
2.4784430294 12.7263666017 0.0113375702
9.9083593299 1.3996359681 0.0014145849
4.95365533 12.7205602037 0.012869177
12.3821340307 1.3904948384 0.0019875703
13.6182275734 2.1081628945 0.0034288071
-1.2469144896 3.5296493214 0.013573712
1.2412597385 2.1430961135 0.013316313
1.2423524316 3.565085597 0.0360644077
3.721203387 2.1691260264 0.0255650019
3.7288305528 3.586576092 0.0718926559
6.2043889429 2.1532258672 0.008988749
6.2085100816 3.5737887905 0.0315896249
8.6665963138 2.1196814683 0.0031107445
8.6676793157 3.5355013791 0.0123631677
11.1445061818 2.1028356756 0.0007750475
11.1379068053 3.5207903378 0.0029530789
12.3744430728 4.234201882 0.0101605377
-2.4868750132 5.6578299444 0.0173986294
-0.0122225582 4.2445609378 0.0379858094
-0.0363603955 5.6603221044 0.0669663086
2.4851323796 4.3053500511 0.0815879245
2.4372193446 5.7166716137 0.1693755848
4.9730189432 4.316859285 0.0954557342
4.9987877367 5.7284623273 0.2167671353
7.4488192056 4.2430285353 0.0308735167
7.4698407039 5.6460271071 0.0465849473
9.9030091203 4.2383512308 0.0081084282
9.9231009748 5.6580431732 0.0105525384
-3.7135940012 6.3726988759 0.009798256
-3.7146295245 7.7944499336 0.0095028105
-1.2647030431 6.3726360344 0.0437575774
-1.2654069918 7.7937656244 0.0445087374
1.1848280658 6.3667097725 0.1143324337
1.1841232245 7.7995548929 0.1141508325
6.2611103845 6.3515599745 0.1139337803
6.2595843066 7.7854197812 0.1108356322
8.6988614641 6.3588140147 0.0256865432
8.6949279212 7.7821375167 0.0275800785
-4.9407327574 8.5036114229 0.010046023
-4.9460016586 9.9272694776 0.0054199672
-2.4875065414 8.5090620312 0.0169810182
-2.4821870086 9.930407067 0.0099446589
-0.0381379278 8.5072032754 0.0692878677
-0.0142942387 9.923526291 0.0389850021
2.4321108023 8.4531586625 0.1644865284
2.4752311995 9.8640285472 0.0787796621
5.0017087943 8.4243370374 0.1892342994
4.9583055573 9.8433078712 0.0925777048
7.471755972 8.49821871 0.0510292109
7.4472187522 9.9153104996 0.0320367984
-6.1810005703 10.6362507519 0.0085769453
-6.1840659541 12.0546929909 0.0007578872
-3.7135197915 10.6426968893 0.0017266788
-3.7122160273 12.0656267834 0.0001525815
-1.2462922644 10.6400554882 0.0139428659
-1.242754601 12.0578896186 0.0034887556
1.2378858315 10.6044838815 0.0357430458
1.2395628963 12.026816281 0.0138147093
3.7183582006 10.5770888996 0.0722068377
3.7164151056 11.9978441251 0.0278426114
6.1943579612 10.5911383001 0.0385038592
6.1935940441 12.0174663149 0.0135144963
3.6742824541 7.0842553892 0.8742545238