POSCAR-clean                            
   1.00000000000000     
    14.8649094067561922    0.0036276381504164    0.0000000000000000
    -7.4324547033281405   12.7489017342724189    0.0000000000000000
     0.0000000000000000    0.0000000000000000   15.0000000000000000
   C    N    C    Cr
    56     1    13     1
Direct
 -0.0002590574313985  0.9993156754097688  0.4976077309550453
  0.0556164297657109  0.1110972547002264  0.4977434734424626
  0.1676332138645771  0.0015898363013671  0.4975670393484037
  0.2234873817370027  0.1131350713540773  0.4982821255418315
  0.3341588838857227  0.0019616231453159  0.4976777588603861
  0.3900161991252032  0.1134280930216661  0.4983874496273314
  0.5000448163555056  0.9999393115703621  0.4977485971212461
  0.5558781730362782  0.1116707054715304  0.4976679185276860
  0.6660667309984331  0.9977701166695400  0.4982926836298406
  0.7217671181090404  0.1092744810092627  0.4975445968721295
  0.8323360686615215  0.9974425735839426  0.4983681863393240
  0.8879261826964169  0.1090501380434644  0.4977048867649339
  0.9991794362043595  0.1654472100831826  0.4977522848701711
  0.0545028238469703  0.2767524023789709  0.4984588923219032
  0.1671878053424172  0.1677676482085307  0.4984307907369399
  0.2228680751641134  0.2793630227107441  0.5000469676340245
  0.3353100300843348  0.1702150188135390  0.4993416662828085
  0.3912431622290291  0.2818144497538309  0.5023125275984374
  0.5010414541725661  0.1685071736645114  0.4984227434616947
  0.5570502123873835  0.2803355310348982  0.5000056718444957
  0.6667578207829880  0.1656836011503971  0.4975439460382785
  0.7226323705590073  0.2769322741176050  0.4980536645852662
  0.8326612428535973  0.1649672990081468  0.4975731755996773
  0.8883831335441722  0.2766455827702773  0.4976859746358238
  0.9991416995788303  0.3324158607257131  0.4982084261670969
  0.0544626660081847  0.4439199537075870  0.4986596621780884
  0.1653973083574550  0.3328226115289875  0.5001397281187515
  0.2192674386872635  0.4439849600487816  0.5020164300481742
  0.3352762715483734  0.3374920633489875  0.5031577834041017
  0.3875924865731170  0.4481094252537073  0.5093147389026613
  0.5034657979626821  0.3392682787351336  0.5035904963363839
  0.5624445519290310  0.4507061946238374  0.5102700799487092
  0.6678806635466898  0.3331456572821485  0.4995587031381609
  0.7251118830418519  0.4441722367984230  0.5008633278774156
  0.8335171868825789  0.3327449096042196  0.4979192185577279
  0.8897982853297051  0.4445030321125480  0.4982844649899289
 -0.0000412865844702  0.5000158071355799  0.4982556109988319
  0.0552123689409032  0.6113308619983567  0.4983179622612218
  0.1646234389421006  0.4999414306745514  0.5003613155350113
  0.2201745848123481  0.6113008429837284  0.5003169387160595
  0.3291349198669248  0.4993962290340687  0.5053428752149026
  0.3851934619484910  0.6117328055596847  0.5052152563112967
  0.6720380791384153  0.5001935642955010  0.5051020341536647
  0.7284413346521936  0.6126103941417040  0.5056677920126977
  0.8354455198859086  0.5008013291250428  0.4994217039416303
  0.8908407478365388  0.6118395765309902  0.4994367203099510
  0.0008059759329698  0.6676768497037450  0.4984077868715007
  0.0568515772325316  0.7788636189602941  0.4980640092916928
  0.1658820940393536  0.6673478467629858  0.4987031303414980
  0.2222987482273132  0.7787459807603743  0.4982130994551373
  0.3307467571578964  0.6671444899559348  0.5018431396836174
  0.3880777469723845  0.7781795754730105  0.5000654972176460
  0.4948814637992238  0.6629021884391436  0.5090695682671591
  0.5532962484173282  0.7733387482344662  0.5032707122947715
  0.6691045836586956  0.6619066394712422  0.5112577963076104
  0.7201793689038453  0.7726763735256059  0.5037107993794726
  0.8366003094294473  0.6669438756076516  0.5007606418285369
  0.8899391636786712  0.7770618166377622  0.4994042037547242
  0.0006227131652232  0.8333349150272993  0.4981718896356680
  0.0559972770384208  0.9449619038887098  0.4976030262698421
  0.1673473818131667  0.8346564760067511  0.4977192377128738
  0.2231378323150269  0.9462268162579234  0.4975613891151704
  0.3332247530224494  0.8343239804524730  0.4984311864879694
  0.3891641620289132  0.9455996414400887  0.4977594257716635
  0.4990430885560547  0.8315652486345435  0.5000988602259483
  0.5549838692104204  0.9431236867212265  0.4984606548755987
  0.6651784593518002  0.8292929338044005  0.5024205620503382
  0.7208626108701023  0.9409098244176343  0.4993422658662711
  0.8323438800929130  0.8301048261399657  0.4996135726228203
  0.8884310646172137  0.9422764514458386  0.4982150655215934
  0.5253099147255005  0.5555010751360512  0.5548504364015503
 
  0.00000000E+00  0.00000000E+00  0.00000000E+00
  0.00000000E+00  0.00000000E+00  0.00000000E+00
  0.00000000E+00  0.00000000E+00  0.00000000E+00
  0.00000000E+00  0.00000000E+00  0.00000000E+00
  0.00000000E+00  0.00000000E+00  0.00000000E+00
  0.00000000E+00  0.00000000E+00  0.00000000E+00
  0.00000000E+00  0.00000000E+00  0.00000000E+00
  0.00000000E+00  0.00000000E+00  0.00000000E+00
  0.00000000E+00  0.00000000E+00  0.00000000E+00
  0.00000000E+00  0.00000000E+00  0.00000000E+00
  0.00000000E+00  0.00000000E+00  0.00000000E+00
  0.00000000E+00  0.00000000E+00  0.00000000E+00
  0.00000000E+00  0.00000000E+00  0.00000000E+00
  0.00000000E+00  0.00000000E+00  0.00000000E+00
  0.00000000E+00  0.00000000E+00  0.00000000E+00
  0.00000000E+00  0.00000000E+00  0.00000000E+00
  0.00000000E+00  0.00000000E+00  0.00000000E+00
  0.00000000E+00  0.00000000E+00  0.00000000E+00
  0.00000000E+00  0.00000000E+00  0.00000000E+00
  0.00000000E+00  0.00000000E+00  0.00000000E+00
  0.00000000E+00  0.00000000E+00  0.00000000E+00
  0.00000000E+00  0.00000000E+00  0.00000000E+00
  0.00000000E+00  0.00000000E+00  0.00000000E+00
  0.00000000E+00  0.00000000E+00  0.00000000E+00
  0.00000000E+00  0.00000000E+00  0.00000000E+00
  0.00000000E+00  0.00000000E+00  0.00000000E+00
  0.00000000E+00  0.00000000E+00  0.00000000E+00
  0.00000000E+00  0.00000000E+00  0.00000000E+00
  0.00000000E+00  0.00000000E+00  0.00000000E+00
  0.00000000E+00  0.00000000E+00  0.00000000E+00
  0.00000000E+00  0.00000000E+00  0.00000000E+00
  0.00000000E+00  0.00000000E+00  0.00000000E+00
  0.00000000E+00  0.00000000E+00  0.00000000E+00
  0.00000000E+00  0.00000000E+00  0.00000000E+00
  0.00000000E+00  0.00000000E+00  0.00000000E+00
  0.00000000E+00  0.00000000E+00  0.00000000E+00
  0.00000000E+00  0.00000000E+00  0.00000000E+00
  0.00000000E+00  0.00000000E+00  0.00000000E+00
  0.00000000E+00  0.00000000E+00  0.00000000E+00
  0.00000000E+00  0.00000000E+00  0.00000000E+00
  0.00000000E+00  0.00000000E+00  0.00000000E+00
  0.00000000E+00  0.00000000E+00  0.00000000E+00
  0.00000000E+00  0.00000000E+00  0.00000000E+00
  0.00000000E+00  0.00000000E+00  0.00000000E+00
  0.00000000E+00  0.00000000E+00  0.00000000E+00
  0.00000000E+00  0.00000000E+00  0.00000000E+00
  0.00000000E+00  0.00000000E+00  0.00000000E+00
  0.00000000E+00  0.00000000E+00  0.00000000E+00
  0.00000000E+00  0.00000000E+00  0.00000000E+00
  0.00000000E+00  0.00000000E+00  0.00000000E+00
  0.00000000E+00  0.00000000E+00  0.00000000E+00
  0.00000000E+00  0.00000000E+00  0.00000000E+00
  0.00000000E+00  0.00000000E+00  0.00000000E+00
  0.00000000E+00  0.00000000E+00  0.00000000E+00
  0.00000000E+00  0.00000000E+00  0.00000000E+00
  0.00000000E+00  0.00000000E+00  0.00000000E+00
  0.00000000E+00  0.00000000E+00  0.00000000E+00
  0.00000000E+00  0.00000000E+00  0.00000000E+00
  0.00000000E+00  0.00000000E+00  0.00000000E+00
  0.00000000E+00  0.00000000E+00  0.00000000E+00
  0.00000000E+00  0.00000000E+00  0.00000000E+00
  0.00000000E+00  0.00000000E+00  0.00000000E+00
  0.00000000E+00  0.00000000E+00  0.00000000E+00
  0.00000000E+00  0.00000000E+00  0.00000000E+00
  0.00000000E+00  0.00000000E+00  0.00000000E+00
  0.00000000E+00  0.00000000E+00  0.00000000E+00
  0.00000000E+00  0.00000000E+00  0.00000000E+00
  0.00000000E+00  0.00000000E+00  0.00000000E+00
  0.00000000E+00  0.00000000E+00  0.00000000E+00
  0.00000000E+00  0.00000000E+00  0.00000000E+00
  0.00000000E+00  0.00000000E+00  0.00000000E+00
