POSCAR-clean
1.0
14.8578806982 -0.0001736021 0.0
-7.4289403491 12.7559991905 0.0
0.0 0.0 15.0
C N C Cr C O
9 1 60 1 1 1
Cartesian
0.0008758742 3.81706e-05 7.2536975533
-0.0049070339 1.4211276848 7.2550829065
2.4807903313 0.0266453165 7.2523203015
2.47905035 1.4471680134 7.2629042611
4.9528900275 0.0277173795 7.2553489073
4.9595865688 1.4468241613 7.2648930675
-0.0004912048 12.7528784647 7.2547972107
7.4436135905 1.4162820998 7.253911885
2.4785432606 12.7412004805 7.2639054462
9.910030754 1.3933841612 7.2527677045
4.9544397545 12.7263605636 7.2647091404
12.3669063505 1.3892574574 7.255090816
13.6049921378 2.1124126237 7.2565580215
-1.2510157585 3.5283320305 7.2666436084
1.2357333653 2.1445135185 7.2646165263
1.2351180042 3.5676711648 7.2901859003
3.7191078968 2.1718788765 7.2802371963
3.7171893296 3.5900587424 7.3274357185
6.2044287731 2.1448515973 7.2651008843
6.1998935085 3.5662820797 7.2900065404
8.688125871 2.1049432252 7.2529811253
8.6900494497 3.5202757595 7.2601557496
11.1329105621 2.0961785699 7.2536298329
11.135397275 3.5159076607 7.255714575
12.3729989981 4.2286859364 7.2641627272
-2.4893641388 5.6564853159 7.2709054097
-0.0163162282 4.245896943 7.2891964059
-0.0416590227 5.6614953737 7.3149576811
2.4729622805 4.3097722321 7.3402515247
2.4251010276 5.7222239466 7.4300996142
4.9619177978 4.3097260999 7.3432675027
5.0082067904 5.7217141257 7.4356667797
7.4511999765 4.2372647992 7.2838135141
7.4755734897 5.6567515767 7.3069724302
9.9142617019 4.2396862066 7.2579317563
9.9202310986 5.6597873028 7.2630068405
-3.7115738763 6.3746610173 7.2633600608
-3.7121605416 7.7966777155 7.263400012
-1.2692483207 6.3731284957 7.2938004755
-1.2672771081 7.7983621193 7.2937142396
1.1792190188 6.36900507 7.3681794481
1.1801994852 7.8063363186 7.3675176768
6.2560032569 6.3663095526 7.3666519264
6.253985024 7.8046155966 7.366630669
8.6993611836 6.3744372915 7.2824604276
8.6996439284 7.7961421006 7.2824243352
-4.938086971 8.5110824108 7.2630532768
-4.9441462359 9.9365901258 7.2578328321
-2.4859500537 8.511969057 7.2709130046
-2.4793053699 9.9364210252 7.2639791274
-0.0390640648 8.5143589222 7.3141233648
-0.0118833937 9.9326516182 7.2890214406
2.4265025159 8.4532889344 7.4310198756
2.4724883377 9.868119565 7.3401253098
5.0048173614 8.4539281271 7.4368867283
4.9572562201 9.8676800982 7.3427796739
7.4716095909 8.5108557066 7.3068436713
7.4461643868 9.9276539706 7.2836904732
-6.17883816 10.6448994027 7.2596514298
-6.1836759383 12.0645376622 7.2521555446
-3.7121454182 10.6501758501 7.2554021836
-3.7124566642 12.072247254 7.253468583
-1.2454641186 10.6434862172 7.2664624886
-1.2407290232 12.0646549197 7.2564716321
1.2431668123 10.614230495 7.2903022608
1.2425738513 12.0426912078 7.2647786444
3.709533956 10.5918359266 7.3268542313
3.7130767744 12.0151532875 7.2809374378
6.1940457735 10.6055966765 7.2897953121
6.1915728013 12.0308779244 7.2650545905
3.7130222934 7.0885536608 8.110664454
3.7130222934 7.0885536608 14.090664454
3.3920083468 6.3627099681 14.9360016377