POSCAR-clean                            
   1.00000000000000     
    14.8584948117652473    0.0076534732915072    0.0000000000000000
    -7.4292474058326876   12.7385461942503042    0.0000000000000000
     0.0000000000000000    0.0000000000000000   15.0000000000000000
   C    N    C    Cr
    40     1    29     1
Direct
  0.0004593152439440  0.0006632628432115  0.4977830936812921
  0.0562198416279713  0.1122347777666235  0.4976655622770139
  0.1681690659244310  0.0025246755674146  0.4975320456421457
  0.2238545985655307  0.1140405002644016  0.4984043040288029
  0.3342306905674803  0.0019203574049342  0.4977000188774880
  0.3899523258587720  0.1135904423230869  0.4983947135168876
  0.4998033245308449  0.9990230619032161  0.4977544293947673
  0.5555154895621612  0.1106778634084193  0.4977937540491411
  0.6653438508585197  0.9971862048254039  0.4984032464372206
  0.7211801448802149  0.1088379342523211  0.4974932204726770
  0.8320964639108652  0.9978196082906976  0.4983508612567817
  0.8878884170738957  0.1094435536748293  0.4977286293813066
  0.9994513273028076  0.1662366895217176  0.4978478317392714
  0.0549257100981535  0.2777367572214473  0.4983579016700332
  0.1680553877988089  0.1692555265133393  0.4982508651423387
  0.2239052890290552  0.2808955628156866  0.5002449651870009
  0.3352930631945696  0.1709801882102511  0.4995839444315990
  0.3909449658305064  0.2826751628554476  0.5028178539269703
  0.5007236091135425  0.1676588953529290  0.4985252733868535
  0.5565699456179445  0.2792594980518786  0.4997060233672883
  0.6663849397485322  0.1652165096761706  0.4975156456763230
  0.7222402050484789  0.2765516918753050  0.4980972553866252
  0.8323129912762610  0.1648773822577283  0.4975193401502693
  0.8879516869786315  0.2762650357385610  0.4976672170105729
  0.9989947571742803  0.3323874600847461  0.4982055788360995
  0.0545671376010759  0.4436167568635696  0.4984351698353535
  0.1663182271018897  0.3340912106350018  0.4995934175633394
  0.2202354386883627  0.4449337602056502  0.5003768643060198
  0.3361777315019268  0.3406344655762936  0.5051543866532384
  0.3890579151671290  0.4522095032740197  0.5138322354258023
  0.5022478099300827  0.3372219701892050  0.5022811026913487
  0.5601797446432002  0.4477031752513554  0.5069659667664368
  0.6674829382764216  0.3328072456602840  0.4998286877051399
  0.7245612719232497  0.4438960166946231  0.5019664796645813
  0.8330981658373986  0.3321608729760612  0.4978820501803156
  0.8893816744979048  0.4437935861889102  0.4984021307456530
  0.0000798475726711  0.4998475604209176  0.4982555461597542
  0.0555955773028813  0.6113081594370726  0.4982762582478699
  0.1651547877858590  0.5001231807825235  0.4991667317818553
  0.2201051838126844  0.6113366018312192  0.4993356065138457
  0.3278637353486715  0.4995050360476512  0.5052679608966457
  0.3842218208995334  0.6097880321641682  0.5049450076820108
  0.6700514377703186  0.4994049475579914  0.5046398923848159
  0.7262859141638316  0.6118921505198358  0.5048907874657331
  0.8352487106609203  0.4999503188495780  0.5002321320093586
  0.8909322524863086  0.6114285528708550  0.5002899570083059
  0.0011953442437189  0.6674674363466835  0.4983533126454915
  0.0567154064079602  0.7791207139427740  0.4978571581720530
  0.1661622554189250  0.6674132944850228  0.4986207660419666
  0.2224369769805250  0.7788967340590673  0.4982456966068014
  0.3304112526944536  0.6657029568490529  0.5003776167761202
  0.3878812795925057  0.7770270659533409  0.4997064318687023
  0.4929668417985198  0.6579383590613048  0.5119069866190600
  0.5517983826745692  0.7705362499923680  0.5048623319502141
  0.6683426357862601  0.6638107747682227  0.5072079531610569
  0.7209027863405737  0.7741782113700779  0.5023256062037262
  0.8363843739423871  0.6675194508482889  0.5023092813636723
  0.8904611809946417  0.7785288841497433  0.4999864095968931
  0.0015360326097493  0.8348023789946524  0.4981199259785356
  0.0569063778872589  0.9461582431582443  0.4975356147258267
  0.1675872170163402  0.8350399825448278  0.4976168080514753
  0.2232968489781442  0.9464819356998930  0.4975211112075897
  0.3331752629018254  0.8336244554037222  0.4984285890107287
  0.3889606880207381  0.9451130205671348  0.4978412039087274
  0.4986015330274185  0.8297514027322990  0.5004752329786939
  0.5544890257208053  0.9418646544501144  0.4984548998858003
  0.6641177298166028  0.8289480570438457  0.5025919402600536
  0.7201107236209481  0.9405367574563783  0.4994748739457791
  0.8330864962605560  0.8320386910224826  0.4997452436773457
  0.8887587583398187  0.9436767253974168  0.4984971831604668
  0.5346200202531719  0.5554317591360558  0.5552358546023157
 
  0.00000000E+00  0.00000000E+00  0.00000000E+00
  0.00000000E+00  0.00000000E+00  0.00000000E+00
  0.00000000E+00  0.00000000E+00  0.00000000E+00
  0.00000000E+00  0.00000000E+00  0.00000000E+00
  0.00000000E+00  0.00000000E+00  0.00000000E+00
  0.00000000E+00  0.00000000E+00  0.00000000E+00
  0.00000000E+00  0.00000000E+00  0.00000000E+00
  0.00000000E+00  0.00000000E+00  0.00000000E+00
  0.00000000E+00  0.00000000E+00  0.00000000E+00
  0.00000000E+00  0.00000000E+00  0.00000000E+00
  0.00000000E+00  0.00000000E+00  0.00000000E+00
  0.00000000E+00  0.00000000E+00  0.00000000E+00
  0.00000000E+00  0.00000000E+00  0.00000000E+00
  0.00000000E+00  0.00000000E+00  0.00000000E+00
  0.00000000E+00  0.00000000E+00  0.00000000E+00
  0.00000000E+00  0.00000000E+00  0.00000000E+00
  0.00000000E+00  0.00000000E+00  0.00000000E+00
  0.00000000E+00  0.00000000E+00  0.00000000E+00
  0.00000000E+00  0.00000000E+00  0.00000000E+00
  0.00000000E+00  0.00000000E+00  0.00000000E+00
  0.00000000E+00  0.00000000E+00  0.00000000E+00
  0.00000000E+00  0.00000000E+00  0.00000000E+00
  0.00000000E+00  0.00000000E+00  0.00000000E+00
  0.00000000E+00  0.00000000E+00  0.00000000E+00
  0.00000000E+00  0.00000000E+00  0.00000000E+00
  0.00000000E+00  0.00000000E+00  0.00000000E+00
  0.00000000E+00  0.00000000E+00  0.00000000E+00
  0.00000000E+00  0.00000000E+00  0.00000000E+00
  0.00000000E+00  0.00000000E+00  0.00000000E+00
  0.00000000E+00  0.00000000E+00  0.00000000E+00
  0.00000000E+00  0.00000000E+00  0.00000000E+00
  0.00000000E+00  0.00000000E+00  0.00000000E+00
  0.00000000E+00  0.00000000E+00  0.00000000E+00
  0.00000000E+00  0.00000000E+00  0.00000000E+00
  0.00000000E+00  0.00000000E+00  0.00000000E+00
  0.00000000E+00  0.00000000E+00  0.00000000E+00
  0.00000000E+00  0.00000000E+00  0.00000000E+00
  0.00000000E+00  0.00000000E+00  0.00000000E+00
  0.00000000E+00  0.00000000E+00  0.00000000E+00
  0.00000000E+00  0.00000000E+00  0.00000000E+00
  0.00000000E+00  0.00000000E+00  0.00000000E+00
  0.00000000E+00  0.00000000E+00  0.00000000E+00
  0.00000000E+00  0.00000000E+00  0.00000000E+00
  0.00000000E+00  0.00000000E+00  0.00000000E+00
  0.00000000E+00  0.00000000E+00  0.00000000E+00
  0.00000000E+00  0.00000000E+00  0.00000000E+00
  0.00000000E+00  0.00000000E+00  0.00000000E+00
  0.00000000E+00  0.00000000E+00  0.00000000E+00
  0.00000000E+00  0.00000000E+00  0.00000000E+00
  0.00000000E+00  0.00000000E+00  0.00000000E+00
  0.00000000E+00  0.00000000E+00  0.00000000E+00
  0.00000000E+00  0.00000000E+00  0.00000000E+00
  0.00000000E+00  0.00000000E+00  0.00000000E+00
  0.00000000E+00  0.00000000E+00  0.00000000E+00
  0.00000000E+00  0.00000000E+00  0.00000000E+00
  0.00000000E+00  0.00000000E+00  0.00000000E+00
  0.00000000E+00  0.00000000E+00  0.00000000E+00
  0.00000000E+00  0.00000000E+00  0.00000000E+00
  0.00000000E+00  0.00000000E+00  0.00000000E+00
  0.00000000E+00  0.00000000E+00  0.00000000E+00
  0.00000000E+00  0.00000000E+00  0.00000000E+00
  0.00000000E+00  0.00000000E+00  0.00000000E+00
  0.00000000E+00  0.00000000E+00  0.00000000E+00
  0.00000000E+00  0.00000000E+00  0.00000000E+00
  0.00000000E+00  0.00000000E+00  0.00000000E+00
  0.00000000E+00  0.00000000E+00  0.00000000E+00
  0.00000000E+00  0.00000000E+00  0.00000000E+00
  0.00000000E+00  0.00000000E+00  0.00000000E+00
  0.00000000E+00  0.00000000E+00  0.00000000E+00
  0.00000000E+00  0.00000000E+00  0.00000000E+00
  0.00000000E+00  0.00000000E+00  0.00000000E+00
