POSCAR-clean                            
   1.00000000000000     
    14.8601789037430319   -0.0031452180979795    0.0000000000000000
    -7.4300894518215781   12.7501479922096905    0.0000000000000000
     0.0000000000000000    0.0000000000000000   15.0000000000000000
   C    N    C    Cr
    32     1    37     1
Direct
  0.9998657492983061  0.9996422827362325  0.4976985422936325
  0.0557578729168934  0.1112843539169670  0.4977917212220288
  0.1680332738355353  0.0019366161921400  0.4975445640008724
  0.2237877443359933  0.1133773517729125  0.4982279164675198
  0.3346545195223772  0.0023942149019497  0.4976602748530125
  0.3905849850052952  0.1139931197779615  0.4982527878296645
  0.5001894608035998  0.0001344395232727  0.4978066941082019
  0.5557901814401499  0.1114458407274587  0.4976720444019770
  0.6659337424339005  0.9982990876891807  0.4983004020155535
  0.7217486152949387  0.1099521374764565  0.4976388696607635
  0.8322933521823779  0.9978847269541286  0.4984025091344748
  0.8878806829457220  0.1092761760609168  0.4976770686845189
  0.9992195399336924  0.1655906785660299  0.4977731511387193
  0.0545129475784571  0.2768454749462526  0.4984494781307826
  0.1675919396213960  0.1681253604279316  0.4984323182024555
  0.2234360052880702  0.2796664285148662  0.4999488578441977
  0.3355186019837116  0.1702083228261986  0.4992488974577694
  0.3916244160325664  0.2813934268344894  0.5023374077241760
  0.5020189516883843  0.1690023384493662  0.4981438139327493
  0.5580108887427139  0.2804315572377941  0.4996505389958080
  0.6664154142170580  0.1664119892088652  0.4977519469640618
  0.7220168565832223  0.2774691150090162  0.4983687751801693
  0.8325236104807369  0.1651317416213213  0.4975962338364616
  0.8876917366553377  0.2763561900655749  0.4977414359282158
  0.9988934493235190  0.3323368185488787  0.4982219331803211
  0.0545282142806508  0.4437596685917330  0.4987044726260645
  0.1656493652252892  0.3329437386721692  0.5000769512964305
  0.2195510846196428  0.4439958378478952  0.5020089845747163
  0.3361111046177334  0.3377535065856480  0.5029837589651120
  0.3882385783262886  0.4484569678848082  0.5088362696527147
  0.5040028409552003  0.3386975968067692  0.5039082796150901
  0.5611003065625604  0.4494243606947457  0.5119957063520377
  0.6677341021147656  0.3329474063574374  0.4996027984467996
  0.7241745961923776  0.4429991555837607  0.5006502271526717
  0.8327231412916201  0.3326212628476892  0.4980851258767099
  0.8897557833922469  0.4439824269256403  0.4982480665568182
  0.0000044846470352  0.4998137193319314  0.4981977810666197
  0.0556959655064954  0.6113360499308919  0.4981780847008814
  0.1648178717170505  0.4998494469583740  0.5004617358293680
  0.2205072942779179  0.6113230350469093  0.5005118131631680
  0.3294443786191817  0.4994252577148625  0.5051667262449588
  0.3855932250122797  0.6118178136043930  0.5051546194977791
  0.6704953832125563  0.4983211828264876  0.5051401493557995
  0.7266287546056164  0.6107933172116735  0.5049336061477989
  0.8348460000874128  0.4989306627163986  0.4992570002115151
  0.8904041090979552  0.6105762879462271  0.4993832358982873
  0.0009898312926600  0.6669424183447217  0.4982142988654004
  0.0564711888749584  0.7786142637649194  0.4979058951470659
  0.1663112288188413  0.6674106937052897  0.4986766318778681
  0.2224144949878321  0.7789012813960021  0.4982075412584169
  0.3310863272915329  0.6673055574968531  0.5021637551772125
  0.3882393467333269  0.7784025247775958  0.5001435641407213
  0.4952199715249685  0.6631073021643765  0.5085103325578428
  0.5534564844690656  0.7737768451458701  0.5027965414764484
  0.6670292911268362  0.6608891908650870  0.5101601839622617
  0.7197602892919110  0.7721927369255468  0.5037164109840910
  0.8361666481126623  0.6667254875539361  0.5009465113943093
  0.8900936752918059  0.7778819543416883  0.4996803505578821
  0.0011592874920048  0.8342063483942487  0.4981163603536938
  0.0565843820909594  0.9454691011021609  0.4975950898142745
  0.1674790937684222  0.8347529498518561  0.4976596759231711
  0.2233742479671529  0.9463677873801553  0.4975547360980111
  0.3334254417579542  0.8345867193426068  0.4984740883949436
  0.3892710861729195  0.9458018815472996  0.4977771477056240
  0.4992210761097801  0.8318377204017624  0.4999274337188364
  0.5551179204924205  0.9434056965683116  0.4984655446216087
  0.6650879945220608  0.8297300355165080  0.5023583531807190
  0.7206793371572183  0.9411742378303792  0.4994007380948565
  0.8322793478756366  0.8308731794023611  0.5001114879495968
  0.8881686170078470  0.9427545316532551  0.4984455304221889
  0.5251324283803178  0.5557509645841419  0.5558281989167397
 
  0.00000000E+00  0.00000000E+00  0.00000000E+00
  0.00000000E+00  0.00000000E+00  0.00000000E+00
  0.00000000E+00  0.00000000E+00  0.00000000E+00
  0.00000000E+00  0.00000000E+00  0.00000000E+00
  0.00000000E+00  0.00000000E+00  0.00000000E+00
  0.00000000E+00  0.00000000E+00  0.00000000E+00
  0.00000000E+00  0.00000000E+00  0.00000000E+00
  0.00000000E+00  0.00000000E+00  0.00000000E+00
  0.00000000E+00  0.00000000E+00  0.00000000E+00
  0.00000000E+00  0.00000000E+00  0.00000000E+00
  0.00000000E+00  0.00000000E+00  0.00000000E+00
  0.00000000E+00  0.00000000E+00  0.00000000E+00
  0.00000000E+00  0.00000000E+00  0.00000000E+00
  0.00000000E+00  0.00000000E+00  0.00000000E+00
  0.00000000E+00  0.00000000E+00  0.00000000E+00
  0.00000000E+00  0.00000000E+00  0.00000000E+00
  0.00000000E+00  0.00000000E+00  0.00000000E+00
  0.00000000E+00  0.00000000E+00  0.00000000E+00
  0.00000000E+00  0.00000000E+00  0.00000000E+00
  0.00000000E+00  0.00000000E+00  0.00000000E+00
  0.00000000E+00  0.00000000E+00  0.00000000E+00
  0.00000000E+00  0.00000000E+00  0.00000000E+00
  0.00000000E+00  0.00000000E+00  0.00000000E+00
  0.00000000E+00  0.00000000E+00  0.00000000E+00
  0.00000000E+00  0.00000000E+00  0.00000000E+00
  0.00000000E+00  0.00000000E+00  0.00000000E+00
  0.00000000E+00  0.00000000E+00  0.00000000E+00
  0.00000000E+00  0.00000000E+00  0.00000000E+00
  0.00000000E+00  0.00000000E+00  0.00000000E+00
  0.00000000E+00  0.00000000E+00  0.00000000E+00
  0.00000000E+00  0.00000000E+00  0.00000000E+00
  0.00000000E+00  0.00000000E+00  0.00000000E+00
  0.00000000E+00  0.00000000E+00  0.00000000E+00
  0.00000000E+00  0.00000000E+00  0.00000000E+00
  0.00000000E+00  0.00000000E+00  0.00000000E+00
  0.00000000E+00  0.00000000E+00  0.00000000E+00
  0.00000000E+00  0.00000000E+00  0.00000000E+00
  0.00000000E+00  0.00000000E+00  0.00000000E+00
  0.00000000E+00  0.00000000E+00  0.00000000E+00
  0.00000000E+00  0.00000000E+00  0.00000000E+00
  0.00000000E+00  0.00000000E+00  0.00000000E+00
  0.00000000E+00  0.00000000E+00  0.00000000E+00
  0.00000000E+00  0.00000000E+00  0.00000000E+00
  0.00000000E+00  0.00000000E+00  0.00000000E+00
  0.00000000E+00  0.00000000E+00  0.00000000E+00
  0.00000000E+00  0.00000000E+00  0.00000000E+00
  0.00000000E+00  0.00000000E+00  0.00000000E+00
  0.00000000E+00  0.00000000E+00  0.00000000E+00
  0.00000000E+00  0.00000000E+00  0.00000000E+00
  0.00000000E+00  0.00000000E+00  0.00000000E+00
  0.00000000E+00  0.00000000E+00  0.00000000E+00
  0.00000000E+00  0.00000000E+00  0.00000000E+00
  0.00000000E+00  0.00000000E+00  0.00000000E+00
  0.00000000E+00  0.00000000E+00  0.00000000E+00
  0.00000000E+00  0.00000000E+00  0.00000000E+00
  0.00000000E+00  0.00000000E+00  0.00000000E+00
  0.00000000E+00  0.00000000E+00  0.00000000E+00
  0.00000000E+00  0.00000000E+00  0.00000000E+00
  0.00000000E+00  0.00000000E+00  0.00000000E+00
  0.00000000E+00  0.00000000E+00  0.00000000E+00
  0.00000000E+00  0.00000000E+00  0.00000000E+00
  0.00000000E+00  0.00000000E+00  0.00000000E+00
  0.00000000E+00  0.00000000E+00  0.00000000E+00
  0.00000000E+00  0.00000000E+00  0.00000000E+00
  0.00000000E+00  0.00000000E+00  0.00000000E+00
  0.00000000E+00  0.00000000E+00  0.00000000E+00
  0.00000000E+00  0.00000000E+00  0.00000000E+00
  0.00000000E+00  0.00000000E+00  0.00000000E+00
  0.00000000E+00  0.00000000E+00  0.00000000E+00
  0.00000000E+00  0.00000000E+00  0.00000000E+00
  0.00000000E+00  0.00000000E+00  0.00000000E+00
