POSCAR-clean
1.0
14.85714294626283 0.0074808514384851 0.0
-7.428571473081486 12.749503262721072 0.0
0.0 0.0 15.0
C N C Cr
8 1 61 1
Cartesian
7.4246786662 12.7548844422 0.0016791033
-0.0001334805 1.4183192171 0.0029266743
2.481186513 0.0258979603 0.0
2.4795263826 1.4465515069 0.0106302291
4.9577756433 0.0282107891 0.0028976211
4.954204799 1.4459475204 0.0126596033
7.4430103463 0.0042540233 0.0027207709
7.4279344376 1.4241967775 0.00197119
2.4800274759 12.7263230495 0.0115676464
9.9096948435 1.3847062209 0.0015780529
4.9411939047 12.731679207 0.0119548174
12.3815639723 1.3984048735 0.0028614285
13.6123899786 2.1163032762 0.0042148845
-1.2495484121 3.5293268482 0.0143396676
1.2381474426 2.1440500013 0.0125434615
1.2361916939 3.5675944401 0.0382699575
3.7167028508 2.1709022662 0.0281016423
3.7159949519 3.5904825522 0.0750974655
6.1971679657 2.1446762004 0.0130103136
6.1984426973 3.5707625179 0.037963052
8.6796629696 2.1027174309 0.0005351263
8.6856260103 3.5256306031 0.007414902
11.139614152 2.0954222466 0.0016614271
11.1373719378 3.5226343732 0.0033152433
12.372715096 4.2393947615 0.0116185941
-2.4887357032 5.6563191972 0.0183802242
-0.0174955823 4.2462877777 0.0373352837
-0.0420458706 5.6626988046 0.0629441339
2.47419882 4.3105910231 0.0877910665
2.4298974099 5.7274460958 0.1769730161
4.9617146721 4.3121330156 0.0913045566
5.004574076 5.725013266 0.1834776434
7.4503392423 4.2446186822 0.0317787382
7.4725068649 5.6633049579 0.0559060793
9.9137593635 4.2384349534 0.0055957274
9.9192736047 5.6646197188 0.0107423348
11.1435550754 6.3794653142 0.0111033354
-3.7134069542 7.7943633 0.0110280181
-1.2674716616 6.3742894349 0.0413582997
-1.2664337474 7.7982901883 0.0410909665
1.1791471327 6.3728881877 0.1156238095
1.177492004 7.8045826434 0.1151251107
6.2539789469 6.3722237026 0.1155058262
6.2508911216 7.8090418257 0.114229601
8.7002518771 6.3789589778 0.0303018845
8.6990661668 7.7999791533 0.0303181777
-4.9376737672 8.507917244 0.0108077566
-4.9438873818 9.931866481 0.0055674718
-2.4859160992 8.5111626064 0.0183520308
-2.4799072124 9.9327230558 0.0116891115
-0.0377004489 8.5148969898 0.0619896435
-0.0127293582 9.9348110238 0.0364110847
2.4310924558 8.4526412734 0.1793194057
2.4726140004 9.8580971917 0.0903561893
4.9989795967 8.4577231414 0.1808849884
4.9561079352 9.8733307596 0.0899699622
7.4699525081 8.5145953989 0.0549400842
7.4453355795 9.9304560745 0.0313613155
-6.1788930546 10.6393404454 0.0073689564
-6.1848748609 12.0568404299 3.50682e-05
-3.7115509975 10.645178608 0.0031338004
-3.7104421312 12.066011702 0.0011029927
-1.2433120991 10.6423210145 0.0140978475
-1.2322298469 12.0585295445 0.0041437368
1.2472104064 10.6147662246 0.0373988128
1.2511528668 12.0322546205 0.0123797237
3.7065442163 10.5949748912 0.0759400222
3.7033046972 12.0074869787 0.029149119
6.1931236329 10.608764825 0.037397738
6.1839855899 12.029535362 0.0130000815
3.7171530222 7.0883370646 0.8659890424