POSCAR-clean
1.0
14.8571429463 0.0074808514 0.0
-7.4285714731 12.7495032627 0.0
0.0 0.0 15.0
C N C Cr C O
8 1 61 1 1 1
Cartesian
7.4246786662 12.7548844422 7.3494935148
-0.0001334805 1.4183192171 7.3507410858
2.481186513 0.0258979603 7.3478144115
2.4795263826 1.4465515069 7.3584446406
4.9577756433 0.0282107891 7.3507120326
4.954204799 1.4459475204 7.3604740148
7.4430103463 0.0042540233 7.3505351824
7.4279344376 1.4241967775 7.3497856015
2.4800274759 12.7263230495 7.3593820579
9.9096948435 1.3847062209 7.3493924644
4.9411939047 12.731679207 7.3597692289
12.3815639723 1.3984048735 7.35067584
13.6123899786 2.1163032762 7.352029296
-1.2495484121 3.5293268482 7.3621540791
1.2381474426 2.1440500013 7.360357873
1.2361916939 3.5675944401 7.386084369
3.7167028508 2.1709022662 7.3759160538
3.7159949519 3.5904825522 7.422911877
6.1971679657 2.1446762004 7.3608247251
6.1984426973 3.5707625179 7.3857774635
8.6796629696 2.1027174309 7.3483495378
8.6856260103 3.5256306031 7.3552293135
11.139614152 2.0954222466 7.3494758386
11.1373719378 3.5226343732 7.3511296548
12.372715096 4.2393947615 7.3594330056
-2.4887357032 5.6563191972 7.3661946357
-0.0174955823 4.2462877777 7.3851496952
-0.0420458706 5.6626988046 7.4107585454
2.47419882 4.3105910231 7.435605478
2.4298974099 5.7274460958 7.5247874276
4.9617146721 4.3121330156 7.4391189681
5.004574076 5.725013266 7.5312920549
7.4503392423 4.2446186822 7.3795931497
7.4725068649 5.6633049579 7.4037204908
9.9137593635 4.2384349534 7.3534101389
9.9192736047 5.6646197188 7.3585567463
11.1435550754 6.3794653142 7.3589177469
-3.7134069542 7.7943633 7.3588424296
-1.2674716616 6.3742894349 7.3891727112
-1.2664337474 7.7982901883 7.388905378
1.1791471327 6.3728881877 7.463438221
1.177492004 7.8045826434 7.4629395222
6.2539789469 6.3722237026 7.4633202377
6.2508911216 7.8090418257 7.4620440125
8.7002518771 6.3789589778 7.378116296
8.6990661668 7.7999791533 7.3781325892
-4.9376737672 8.507917244 7.3586221681
-4.9438873818 9.931866481 7.3533818833
-2.4859160992 8.5111626064 7.3661664423
-2.4799072124 9.9327230558 7.359503523
-0.0377004489 8.5148969898 7.409804055
-0.0127293582 9.9348110238 7.3842254962
2.4310924558 8.4526412734 7.5271338172
2.4726140004 9.8580971917 7.4381706008
4.9989795967 8.4577231414 7.5286993999
4.9561079352 9.8733307596 7.4377843737
7.4699525081 8.5145953989 7.4027544957
7.4453355795 9.9304560745 7.379175727
-6.1788930546 10.6393404454 7.3551833679
-6.1848748609 12.0568404299 7.3478494797
-3.7115509975 10.645178608 7.3509482119
-3.7104421312 12.066011702 7.3489174042
-1.2433120991 10.6423210145 7.361912259
-1.2322298469 12.0585295445 7.3519581483
1.2472104064 10.6147662246 7.3852132243
1.2511528668 12.0322546205 7.3601941352
3.7065442163 10.5949748912 7.4237544337
3.7033046972 12.0074869787 7.3769635305
6.1931236329 10.608764825 7.3852121495
6.1839855899 12.029535362 7.360814493
3.7171530222 7.0883370646 8.2138034539
3.7171530222 7.0883370646 10.6938034539
3.3961390756 6.3624933719 11.5391406376