POSCAR-c3n4                             
   1.1599999999999999     
    13.8434242346000005   -0.1907404740000000    0.0000000000000000
    -6.9217121173999994   11.6951909939000007    0.0000000000000000
     0.0000000000000000    0.0000000000000000   15.0000000000000000
   C    N    Ge   C    O 
    24    32     1     1     1
Direct
  0.0060852954470510  0.1621997886912569  0.4702270608584705
  0.3561772746877864  0.3830618207491582  0.4387895504677047
  0.0348952003345529  0.3297793105909678  0.4649581874130478
  0.5257837668410845  0.1137915636148511  0.5046649000449255
  0.5020114073062255  0.3969250088154562  0.4475469856116378
  0.0105623147111993  0.0177851990234781  0.4751582941662202
  0.0260463737478385  0.7269290853212662  0.4843622585282694
  0.4029884919178364  0.9556916737313835  0.4956783158715444
  0.0071946918344605  0.8729618001958743  0.4975365887842406
  0.4735979936639278  0.5310269472357607  0.4856677417597099
  0.5499716207762742  0.9725450457837032  0.4964707467277459
  0.0951425133745273  0.5064005713663960  0.4844127112867277
  0.6616480799508415  0.2678292795644348  0.5058439287344921
  0.8088229285872811  0.4201619843310928  0.4682140709572713
  0.6505387470182077  0.4199350605409179  0.4759922199745606
  0.8642720740920383  0.0184594037373133  0.5052556209115403
  0.9274597500486519  0.3852267381676803  0.4467351822493776
  0.6866429228821801  0.1385241488173055  0.5253395089022483
  0.6078123876651516  0.6851273753787761  0.5105561831030172
  0.7258183467845095  0.8527868604246650  0.5361466788719340
  0.7024104268235311  0.0024825553119847  0.5179804599829938
  0.9639420566093377  0.5515067331049187  0.4802917305456058
  0.8772792331951780  0.8757200248748590  0.5439208282756458
  0.6359090710246585  0.5561125472534945  0.4932129942270050
  0.0598381358821241  0.2610720165642451  0.4680884550620910
  0.0548936968409182  0.1130796593104404  0.4578381148218435
  0.4285976553039491  0.0488136619365367  0.5028684514494817
  0.5626756151849215  0.3632598476665334  0.4432445857406879
  0.4080788336183003  0.3429574558236848  0.4247818628488943
  0.5647169227079750  0.2116329931230135  0.5035130262188151
  0.0518360611260456  0.9623673319223132  0.4643713803043018
  0.9149227178965417  0.9685775089421192  0.5067632714476220
  0.0439411515156854  0.8114738517564911  0.4808288697129451
  0.1723779119632488  0.5916413101891979  0.4997994235592736
  0.3769878669187250  0.4683038625502565  0.4686699387005725
  0.6106965598290884  0.9391530504924466  0.4959402466191972
  0.4526135199437086  0.9114887344972387  0.4890077532595477
  0.5084401413619900  0.6236265065979595  0.5069622649788026
  0.1059057599950408  0.4241761957961211  0.4842832409804427
 -0.0026741885671120  0.4852706169513502  0.4718113555160773
  0.7067826959804892  0.3714974317193195  0.4861039029695579
  0.7213726136512276  0.2360808312607858  0.5285166337443987
  0.7630993854226178  0.9595990163768719  0.5207179222670941
  0.9471547540632936  0.3144870023251226  0.4398926138350897
  0.8348786055434930  0.3626381109085858  0.4340935956473317
  0.9069216698195677  0.1113503712557538  0.4861496456330838
  0.7412913526331045  0.0978630192170922  0.5382997578552216
  0.5872625993487166  0.0747579313745370  0.5059258769379612
  0.6383053304137233  0.7840297881778792  0.5151414258080604
  0.6712790025929010  0.6522017209236504  0.5045404858698774
  0.8691220434511101  0.5164487546077889  0.4865526164303542
  0.9294429265795969  0.8317561619616616  0.5445782574366074
  0.7875439442055763  0.8311844233112127  0.5700443612114717
  0.0298438845127775  0.6502529404348583  0.4823086422889548
  0.6912208920894880  0.5141679707604991  0.4982124499371212
  0.5356478997845397  0.4928743881010738  0.4769197904674385
  0.2408688113403789  0.5269211095222912  0.5354356546744166
  0.2331469088261861  0.5574988816391671  0.7315592383365844
  0.2580746304887196  0.5498475270201600  0.7912721390462246

  0.00000000E+00  0.00000000E+00  0.00000000E+00
  0.00000000E+00  0.00000000E+00  0.00000000E+00
  0.00000000E+00  0.00000000E+00  0.00000000E+00
  0.00000000E+00  0.00000000E+00  0.00000000E+00
  0.00000000E+00  0.00000000E+00  0.00000000E+00
  0.00000000E+00  0.00000000E+00  0.00000000E+00
  0.00000000E+00  0.00000000E+00  0.00000000E+00
  0.00000000E+00  0.00000000E+00  0.00000000E+00
  0.00000000E+00  0.00000000E+00  0.00000000E+00
  0.00000000E+00  0.00000000E+00  0.00000000E+00
  0.00000000E+00  0.00000000E+00  0.00000000E+00
  0.00000000E+00  0.00000000E+00  0.00000000E+00
  0.00000000E+00  0.00000000E+00  0.00000000E+00
  0.00000000E+00  0.00000000E+00  0.00000000E+00
  0.00000000E+00  0.00000000E+00  0.00000000E+00
  0.00000000E+00  0.00000000E+00  0.00000000E+00
  0.00000000E+00  0.00000000E+00  0.00000000E+00
  0.00000000E+00  0.00000000E+00  0.00000000E+00
  0.00000000E+00  0.00000000E+00  0.00000000E+00
  0.00000000E+00  0.00000000E+00  0.00000000E+00
  0.00000000E+00  0.00000000E+00  0.00000000E+00
  0.00000000E+00  0.00000000E+00  0.00000000E+00
  0.00000000E+00  0.00000000E+00  0.00000000E+00
  0.00000000E+00  0.00000000E+00  0.00000000E+00
  0.00000000E+00  0.00000000E+00  0.00000000E+00
  0.00000000E+00  0.00000000E+00  0.00000000E+00
  0.00000000E+00  0.00000000E+00  0.00000000E+00
  0.00000000E+00  0.00000000E+00  0.00000000E+00
  0.00000000E+00  0.00000000E+00  0.00000000E+00
  0.00000000E+00  0.00000000E+00  0.00000000E+00
  0.00000000E+00  0.00000000E+00  0.00000000E+00
  0.00000000E+00  0.00000000E+00  0.00000000E+00
  0.00000000E+00  0.00000000E+00  0.00000000E+00
  0.00000000E+00  0.00000000E+00  0.00000000E+00
  0.00000000E+00  0.00000000E+00  0.00000000E+00
  0.00000000E+00  0.00000000E+00  0.00000000E+00
  0.00000000E+00  0.00000000E+00  0.00000000E+00
  0.00000000E+00  0.00000000E+00  0.00000000E+00
  0.00000000E+00  0.00000000E+00  0.00000000E+00
  0.00000000E+00  0.00000000E+00  0.00000000E+00
  0.00000000E+00  0.00000000E+00  0.00000000E+00
  0.00000000E+00  0.00000000E+00  0.00000000E+00
  0.00000000E+00  0.00000000E+00  0.00000000E+00
  0.00000000E+00  0.00000000E+00  0.00000000E+00
  0.00000000E+00  0.00000000E+00  0.00000000E+00
  0.00000000E+00  0.00000000E+00  0.00000000E+00
  0.00000000E+00  0.00000000E+00  0.00000000E+00
  0.00000000E+00  0.00000000E+00  0.00000000E+00
  0.00000000E+00  0.00000000E+00  0.00000000E+00
  0.00000000E+00  0.00000000E+00  0.00000000E+00
  0.00000000E+00  0.00000000E+00  0.00000000E+00
  0.00000000E+00  0.00000000E+00  0.00000000E+00
  0.00000000E+00  0.00000000E+00  0.00000000E+00
  0.00000000E+00  0.00000000E+00  0.00000000E+00
  0.00000000E+00  0.00000000E+00  0.00000000E+00
  0.00000000E+00  0.00000000E+00  0.00000000E+00
  0.00000000E+00  0.00000000E+00  0.00000000E+00
  0.00000000E+00  0.00000000E+00  0.00000000E+00
  0.00000000E+00  0.00000000E+00  0.00000000E+00
