POSCAR-c3n4                             
   1.1599999999999999     
    13.8434242346000005   -0.1907404740000000    0.0000000000000000
    -6.9217121173999994   11.6951909939000007    0.0000000000000000
     0.0000000000000000    0.0000000000000000   15.0000000000000000
   C    N    Ge   C    O 
    24    32     1     1     1
Direct
  0.0256609640828785  0.1657642583560769  0.4735885688725819
  0.3558912517999016  0.3880240857538865  0.4572304126518393
  0.0416772746698078  0.3289277018555806  0.4711934332863393
  0.4993145495067340  0.1159329552341083  0.4975405433450909
  0.4993937662137212  0.3994045534190874  0.4552259934065436
  0.0434968031114849  0.0295141959144605  0.4771929081147951
  0.0377715383468437  0.7300073724394127  0.4758691950497679
  0.3645440512805574  0.9652325059757034  0.4931775861451601
  0.0425037453645184  0.8842258519151668  0.4921544568683756
  0.4819351708718762  0.5423731019493043  0.4848348728599972
  0.5011652794377240  0.9609689416223050  0.5001654591805327
  0.0942140735337974  0.5064610948790150  0.4852912564704084
  0.6455348354757480  0.2631861386485976  0.5013849877931301
  0.8032599060129669  0.4097633154789941  0.4725366806407914
  0.6479348283065517  0.4196700032923378  0.4719105712133096
  0.8865676328412707  0.0154581465858541  0.4997814853975309
  0.9254576436847326  0.3759464656070299  0.4584620962455545
  0.6504552099893534  0.1246639108286750  0.5255294813898176
  0.6219543402708548  0.6944272554846456  0.5083902851183789
  0.7553402027488856  0.8554647303736540  0.5297297872597537
  0.6463214735599982  0.9827066926575633  0.5196991545509793
  0.9566919915455431  0.5443640903873644  0.4795076785915126
  0.9091573202305179  0.8803103434142610  0.5371997129553575
  0.6408450267336391  0.5587353920743583  0.4914260327186819
  0.0731028699559886  0.2664028775624379  0.4743449929101298
  0.0840533118560643  0.1262930057875193  0.4644725328912719
  0.4007384205160800  0.0601025801329212  0.4946062174646257
  0.5591524735125644  0.3660185721949031  0.4412513158723275
  0.4018384899135263  0.3408843048125864  0.4477041535688614
  0.5490424333945408  0.2133463205927492  0.4923379544756677
  0.0872183629886833 -0.0234082396603646  0.4632942818235510
 -0.0536740600179810 -0.0251539753285669  0.5043482468331558
  0.0760805726081518  0.8203419517327674  0.4709346529366550
  0.1704572197192995  0.5947506372689212  0.4953977797509573
  0.3832737181501807  0.4804477503060802  0.4710807258344165
  0.5565501514690044  0.9182456982609273  0.5043244845101695
  0.4043425909761254  0.9100808645981703  0.4919629149790908
  0.5208383424698183  0.6366354941536835  0.5003857204825427
  0.1105626939711981  0.4274376966309942  0.4856548710599159
  0.9938344926307962  0.4800522988679526  0.4773135678924732
  0.6995531014223350  0.3651282352781705  0.4830990639143236
  0.6941376059412793  0.2211128014831031  0.5303285269655595
  0.7890846709955446  0.9525764823139300  0.5098375576761400
 -0.0511263528413608  0.3080387276220411  0.4524532874938887
  0.8313073017316938  0.3494250268871246  0.4479047505511642
 -0.0734466093403863  0.1100668771175582  0.4829777453150037
  0.6984332751671969  0.0744293316844097  0.5356735582930346
  0.5501529848777884  0.0653037402978723  0.5057677021074735
  0.6587046743224408  0.7908967950669947  0.5216424682966535
  0.6801945826468699  0.6548958010470777  0.5006114621842701
  0.8619036413122088  0.5081349429192622  0.4846145654313468
 -0.0337680967664607  0.8416458201329247  0.5415299372284781
  0.8158045888780476  0.8267613908345267  0.5562760863805318
  0.0179511796824874  0.6442793171743633  0.4746150677650179
  0.6928180062694221  0.5127057962493224  0.4961759835846689
  0.5387331441743520  0.4975727256086833  0.4800312303069952
  0.2446240291545969  0.5360827160740818  0.5305080143511689
  0.2504724727145509  0.5676452999727938  0.7328504119630641
  0.2500861175164441  0.5446097418198833  0.7946655266525320

  0.00000000E+00  0.00000000E+00  0.00000000E+00
  0.00000000E+00  0.00000000E+00  0.00000000E+00
  0.00000000E+00  0.00000000E+00  0.00000000E+00
  0.00000000E+00  0.00000000E+00  0.00000000E+00
  0.00000000E+00  0.00000000E+00  0.00000000E+00
  0.00000000E+00  0.00000000E+00  0.00000000E+00
  0.00000000E+00  0.00000000E+00  0.00000000E+00
  0.00000000E+00  0.00000000E+00  0.00000000E+00
  0.00000000E+00  0.00000000E+00  0.00000000E+00
  0.00000000E+00  0.00000000E+00  0.00000000E+00
  0.00000000E+00  0.00000000E+00  0.00000000E+00
  0.00000000E+00  0.00000000E+00  0.00000000E+00
  0.00000000E+00  0.00000000E+00  0.00000000E+00
  0.00000000E+00  0.00000000E+00  0.00000000E+00
  0.00000000E+00  0.00000000E+00  0.00000000E+00
  0.00000000E+00  0.00000000E+00  0.00000000E+00
  0.00000000E+00  0.00000000E+00  0.00000000E+00
  0.00000000E+00  0.00000000E+00  0.00000000E+00
  0.00000000E+00  0.00000000E+00  0.00000000E+00
  0.00000000E+00  0.00000000E+00  0.00000000E+00
  0.00000000E+00  0.00000000E+00  0.00000000E+00
  0.00000000E+00  0.00000000E+00  0.00000000E+00
  0.00000000E+00  0.00000000E+00  0.00000000E+00
  0.00000000E+00  0.00000000E+00  0.00000000E+00
  0.00000000E+00  0.00000000E+00  0.00000000E+00
  0.00000000E+00  0.00000000E+00  0.00000000E+00
  0.00000000E+00  0.00000000E+00  0.00000000E+00
  0.00000000E+00  0.00000000E+00  0.00000000E+00
  0.00000000E+00  0.00000000E+00  0.00000000E+00
  0.00000000E+00  0.00000000E+00  0.00000000E+00
  0.00000000E+00  0.00000000E+00  0.00000000E+00
  0.00000000E+00  0.00000000E+00  0.00000000E+00
  0.00000000E+00  0.00000000E+00  0.00000000E+00
  0.00000000E+00  0.00000000E+00  0.00000000E+00
  0.00000000E+00  0.00000000E+00  0.00000000E+00
  0.00000000E+00  0.00000000E+00  0.00000000E+00
  0.00000000E+00  0.00000000E+00  0.00000000E+00
  0.00000000E+00  0.00000000E+00  0.00000000E+00
  0.00000000E+00  0.00000000E+00  0.00000000E+00
  0.00000000E+00  0.00000000E+00  0.00000000E+00
  0.00000000E+00  0.00000000E+00  0.00000000E+00
  0.00000000E+00  0.00000000E+00  0.00000000E+00
  0.00000000E+00  0.00000000E+00  0.00000000E+00
  0.00000000E+00  0.00000000E+00  0.00000000E+00
  0.00000000E+00  0.00000000E+00  0.00000000E+00
  0.00000000E+00  0.00000000E+00  0.00000000E+00
  0.00000000E+00  0.00000000E+00  0.00000000E+00
  0.00000000E+00  0.00000000E+00  0.00000000E+00
  0.00000000E+00  0.00000000E+00  0.00000000E+00
  0.00000000E+00  0.00000000E+00  0.00000000E+00
  0.00000000E+00  0.00000000E+00  0.00000000E+00
  0.00000000E+00  0.00000000E+00  0.00000000E+00
  0.00000000E+00  0.00000000E+00  0.00000000E+00
  0.00000000E+00  0.00000000E+00  0.00000000E+00
  0.00000000E+00  0.00000000E+00  0.00000000E+00
  0.00000000E+00  0.00000000E+00  0.00000000E+00
  0.00000000E+00  0.00000000E+00  0.00000000E+00
  0.00000000E+00  0.00000000E+00  0.00000000E+00
  0.00000000E+00  0.00000000E+00  0.00000000E+00
