POSCAR-clean
1.0
14.858494811765247 0.0076534732915072 0.0
-7.429247405832688 12.738546194250304 0.0
0.0 0.0 15.0
C N C Cr
40 1 29 1
Cartesian
0.0018971894 0.0084525197 0.0043480981
0.0015222936 1.4301381782 0.0025851271
2.4799827541 0.0334477738 0.0005823775
2.4789073006 1.4544234458 0.0136662533
4.9518981715 0.0270205872 0.0031019761
4.9502131117 1.4499615865 0.0135223957
0.0043356134 12.7299266546 0.0039181338
7.4318707899 1.4141266987 0.0045080036
2.4776651307 12.7077947258 0.0136503895
9.9070675004 1.3919565861 0.0
4.9506522555 12.7171396018 0.0128646118
12.3796022013 1.4009471944 0.0035311336
13.615328867 2.1252630227 0.005319169
-1.2472617046 3.5383828842 0.012970218
1.2396089264 2.1573555505 0.01136467
1.240052944 3.5799147558 0.0412761707
3.7116961202 2.1806051823 0.0313608594
3.7087900261 3.6038627069 0.0798695018
6.1944197348 2.1395628581 0.0154807937
6.1951037479 3.5616197093 0.0331920434
8.674042844 2.1097182999 0.000336378
8.6768314001 3.5283941482 0.0090605237
11.1420033982 2.1066682355 0.0003917952
11.141184234 3.5260108341 0.0026099481
12.3741697409 4.2417787944 0.0106853754
-2.4849531092 5.651450178 0.0141292404
-0.0108077454 4.2571092319 0.0315029564
-0.0331558607 5.6694948238 0.0432546575
2.4644373596 4.3417608024 0.1149174927
2.4212387349 5.7634692913 0.2450852243
4.9573410308 4.2995615852 0.0718182333
4.9973301761 5.7073749 0.1420911944
7.4452844089 4.2445890355 0.0350320085
7.4680765692 5.6601353245 0.0670988879
9.9108794709 4.2376227189 0.0058324456
9.9178206473 5.6600919573 0.0136336541
-3.7123047768 6.3673318496 0.0114348853
-3.7154929608 7.7876027272 0.0117455666
-1.261587286 6.372106249 0.0251026696
-1.2713391315 7.7892241118 0.0276357906
1.1606151174 6.3654772723 0.1166211063
1.1786917763 7.7707536479 0.1117768081
6.2457529006 6.3668212149 0.1072000787
6.2456173156 7.8001750351 0.1109635049
8.6962840245 6.3750327852 0.041083673
8.6954582609 7.7955295914 0.041951048
-4.9410197037 8.5025739196 0.0129013826
-4.945574971 9.9252992753 0.0054590655
-2.4894574766 8.5031468008 0.0169131835
-2.4815378725 9.9237144428 0.011287142
-0.0362580813 8.4826166612 0.0432659445
-0.0093943336 9.9011638128 0.0331981709
2.436758414 8.3849510884 0.2162064922
2.4743889698 9.8197347891 0.1105366722
4.9989511099 8.4610993611 0.1457209903
4.9599688422 9.8674223183 0.072485786
7.4682457323 8.5096286057 0.0722409134
7.447029145 9.9241412752 0.0373978369
-6.179130276 10.6341804239 0.0094005826
-6.1837005529 12.053116019 0.0006359138
-3.7136248295 10.638478016 0.0018538137
-3.7137933934 12.0585128564 0.000418361
-1.2427194075 10.6217135818 0.0140305281
-1.2421080913 12.0423427715 0.0052197515
1.2440398354 10.573642607 0.0447301876
1.2415267711 12.0022301764 0.0144251912
3.7093296405 10.5646759246 0.0764807968
3.7122811854 11.9865822804 0.0297248021
6.1969900956 10.6053393062 0.0337803481
6.1948095356 12.0278716503 0.0150594403
3.8172088415 7.0794848216 0.8661395119