POSCAR-clean
1.0
14.86116063033913 -0.0038925078995232 0.0
-7.430580315119624 12.757783281149631 0.0
0.0 0.0 15.0
C N C Cr
58 1 11 1
Cartesian
7.4361111467 12.7398741463 0.0019006858
0.0084176519 1.4139358879 0.0029749091
2.476833351 0.0125562099 0.0005173575
2.4736139279 1.4381031381 0.0109845551
4.9506648713 0.0220271321 0.0032043395
4.9527800561 1.4457698651 0.0129399398
0.000999081 12.7524149273 0.0030371193
7.4324016608 1.4174024742 0.0019637621
2.4802723753 12.7258124675 0.0108729818
9.9126961632 1.3892627411 0.0002746663
4.956890821 12.7246909882 0.0126833427
12.3858401901 1.3907286425 0.0032344311
13.6209090432 2.1037480883 0.0044244764
-1.2464166681 3.5282807699 0.0144970993
1.238475053 2.1412086536 0.0125749506
1.2368033316 3.5673866601 0.0381391014
3.7144352436 2.1658694812 0.0281355157
3.7167948002 3.5869826222 0.0741992086
6.1933596045 2.1423851059 0.013358301
6.196334579 3.5672187829 0.0379184004
8.6772047749 2.1084154247 0.0
8.6818257744 3.5291705359 0.0074850944
11.1495839321 2.1006853165 0.0014200875
11.1493208812 3.522414747 0.0035674509
12.3792089103 4.2346037721 0.0120044468
-2.4892641377 5.6650610842 0.0187875267
-0.0150254915 4.245958828 0.0373649372
-0.0399870862 5.662755814 0.0632876957
2.4730859076 4.3090587719 0.0880425185
2.4279372185 5.7215384149 0.1790837708
4.9605736299 4.3092015328 0.0903519178
5.0078444754 5.7271413156 0.1833854464
7.4489971731 4.2455211471 0.031749192
7.4729085706 5.6627254877 0.0553989143
9.9161943463 4.237297759 0.0058136417
9.9232727643 5.6600916755 0.0108123236
-3.715709083 6.3825009925 0.0114241475
-3.7162371157 7.8076027075 0.0113000079
-1.2689607329 6.3773348016 0.0418236695
-1.2691435695 7.7986376664 0.0417834414
1.1784022175 6.3693617538 0.116178322
1.1789608017 7.8040252041 0.1159582896
6.2571223516 6.3730664551 0.1161262293
6.2595580674 7.8128403111 0.1163246253
8.7015863748 6.3763530575 0.0297681035
8.7028399006 7.7935636143 0.0294270775
-4.9487026385 8.5239090675 0.0106811458
-4.9566051934 9.9436053409 0.0061107912
-2.4910038785 8.5141713533 0.0188401578
-2.4911685197 9.9354386506 0.0119719178
-0.0413570894 8.5116387485 0.0628700131
-0.0177322517 9.9274770662 0.0370650893
2.4281698905 8.4502176192 0.1777363265
2.4766642008 9.8625943185 0.0883695983
5.0109699507 8.4504303172 0.1848502673
4.9713165496 9.8607562805 0.090960828
7.4839800424 8.5186735195 0.0549535217
7.4618595381 9.9322867512 0.0320795999
-6.1792667131 10.6458138541 0.0081988303
-6.1842021307 12.0515089377 0.0007624818
-3.7258703767 10.65376374 0.0035975277
-3.7109317913 12.0723212153 0.0014249258
-1.2537348988 10.6438464911 0.014407053
-1.2438878817 12.0609306917 0.0045231398
1.2361960186 10.605128866 0.0380858181
1.2390199035 12.0282700436 0.012623755
3.7228064557 10.5822123785 0.0746679366
3.7185024383 11.9991532522 0.0280061761
6.2111832845 10.6080311219 0.0366879216
6.1940700546 12.0302456011 0.0125556469
3.7106455414 7.0842814775 0.8620053377