POSCAR-clean
1.0
14.857851351023728 -0.0013713678020068 0.0
-7.428925675461933 12.75685001703824 0.0
0.0 0.0 15.0
C N C Cr
59 1 10 1
Cartesian
-7.415515602 12.7486754033 0.0022746872
0.0113317537 1.4120797226 0.0030623306
2.4685916909 0.01880686 0.0011506518
2.4697092821 1.4365488603 0.0114475989
4.9425863551 0.0261345066 0.0030388885
4.9504753763 1.4448245763 0.0129088182
-0.0005313822 12.7538563381 0.0031731626
7.4299124144 1.419420016 0.002086773
2.482158735 12.7274080421 0.0110463148
9.9110054091 1.3915260436 0.0002381748
4.9631723503 12.7287471183 0.0125145433
12.3843799247 1.3906468206 0.0031529979
13.6182142545 2.1015855344 0.0043440549
-1.2447549029 3.5260314558 0.0144466378
1.2383785967 2.1470198665 0.0128836791
1.2370936601 3.5662141646 0.0380142185
3.7133296542 2.1630526413 0.028566508
3.7139101449 3.5847909655 0.0750414896
6.1923590776 2.143612131 0.0135703729
6.194832732 3.5672101514 0.0377281806
8.675244286 2.1102563441 0.0
8.6798425084 3.5295225522 0.0075860005
11.1463580136 2.1020127948 0.0014239429
11.1461952104 3.5230717055 0.0035558185
12.3778063607 4.2347977938 0.0118963538
-2.4873828076 5.6624038912 0.0188021256
-0.0162121707 4.2452284208 0.0375398071
-0.0404646663 5.6614341103 0.063273075
2.4738282092 4.3087501359 0.0878822478
2.428279578 5.7209983305 0.1787007013
4.9581953287 4.3080266526 0.0892300388
5.0060965146 5.7227127908 0.1817941035
7.4469878796 4.2463822424 0.0322119791
7.4719988337 5.6630173387 0.0565492619
9.9132459486 4.2372772702 0.0058359323
9.9183504891 5.6622772339 0.010855936
-3.7145102525 6.379244022 0.0110702659
-3.7160191494 7.8031981993 0.0111460838
-1.2685141426 6.3758756793 0.0424709489
-1.2689436074 7.7986684994 0.0421167288
1.1796824794 6.3684543488 0.1147703373
1.1791064053 7.804049792 0.1148192488
6.253557132 6.3709984047 0.1154626356
6.2561289746 7.8097411394 0.1149531558
8.6988412339 6.3766653579 0.0309663543
8.6991484351 7.8009527125 0.0305782721
-4.9449759301 8.5202852852 0.0107852031
-4.9487276517 9.949644726 0.0056459785
-2.4890902346 8.5124870897 0.0188619825
-2.4832910326 9.9379721441 0.0118625886
-0.0402980626 8.5118141477 0.0626545826
-0.0150096551 9.928630768 0.0374343134
2.4283882871 8.4508266272 0.1792657175
2.475320086 9.8641803637 0.0877379008
5.0092975944 8.4508522303 0.1846129052
4.9628043371 9.8657165333 0.0892300783
7.4778541804 8.5181935794 0.0550371786
7.4501189481 9.9392416362 0.0322681972
-6.1784055997 10.6580155994 0.0085734643
-6.1829868121 12.063268214 0.0008045551
-3.71087432 10.649028678 0.0032919312
-3.7247056825 12.0676007193 0.0013982255
-1.2480799746 10.6459984274 0.0146054206
-1.2480942924 12.0634437302 0.0044753668
1.2372024139 10.6065681086 0.0381708717
1.2394261648 12.0292248251 0.0130027829
3.7181120004 10.5851921775 0.0747156876
3.7226737699 12.0027553246 0.0281782142
6.1939522209 10.6038909014 0.0375639708
6.2072614563 12.0270513947 0.0129933362
3.71587789 7.0865591959 0.8609186842