POSCAR-clean                            
   1.00000000000000     
    14.8530717796976450    0.0235212199401306    0.0000000000000000
    -7.4265358897989096   12.7416551812045551    0.0000000000000000
     0.0000000000000000    0.0000000000000000   15.0000000000000000
   C    N    C    Cr
    28     1    41     1
Direct
  0.0002938906887024  0.0000878066105514  0.4976151410827896
  0.0560518983895761  0.1117485470856678  0.4976435528877019
  0.1680048370443146  0.0019313492499080  0.4975768323173781
  0.2234357140992884  0.1130438361839694  0.4983517395538328
  0.3342230803426460  0.0022480547866905  0.4976960995955011
  0.3898452979547713  0.1139760888577968  0.4984669667144317
  0.4999883941989509  0.9999858393009831  0.4977596309352279
  0.5556127340152273  0.1116882843563829  0.4976931820153752
  0.6658121891414837  0.9980129827853972  0.4982659113645695
  0.7214643130388012  0.1093915073998275  0.4974929234966865
  0.8324096142499684  0.9980666338064594  0.4983658329139402
  0.8878677094740866  0.1093136253495643  0.4976974605419642
  0.9993359234170427  0.1656283299544015  0.4977864182114331
  0.0548885825425103  0.2766263396323581  0.4984636510890255
  0.1679686328365975  0.1683727364124863  0.4982413404533617
  0.2232477568184237  0.2793317231263757  0.4998387387666696
  0.3345721747287485  0.1706545496740688  0.4995210609476501
  0.3898061910753938  0.2821599885286972  0.5024362944186009
  0.5006753210984556  0.1687607740326555  0.4985589583284877
  0.5558709700614486  0.2802600357732175  0.5000940665284048
  0.6663654141696895  0.1658117828800911  0.4975176558597738
  0.7220448017379084  0.2769917159952868  0.4980975219769732
  0.8324985578018484  0.1650538576317544  0.4975598263391490
  0.8882858796195450  0.2765036407679204  0.4976896100968489
  0.9993459752910425  0.3323108807799926  0.4982548502917439
  0.0546138537330805  0.4436773289275706  0.4986212634572027
  0.1661139768865567  0.3328301801124809  0.4998169951709457
  0.2194895666500685  0.4437692770820121  0.5013269232493585
  0.3341257692606519  0.3368283430982117  0.5037617031692534
  0.3868473761002349  0.4458418269589401  0.5115792972209903
  0.5014650957407270  0.3394249641793294  0.5031412738745615
  0.5607879883277889  0.4503068938872303  0.5084136679764413
  0.6669376118699688  0.3332031172475283  0.4997385844923130
  0.7246013287215050  0.4443079800633996  0.5011974007919520
  0.8331900740766542  0.3324057996918270  0.4978961484951299
  0.8895108074452054  0.4438207581312668  0.4983298563908605
  0.0000913305358239  0.4997339496533115  0.4981959738329493
  0.0560581535990821  0.6112449931243091  0.4980576333643327
  0.1649468280349282  0.4995976254203072  0.5001244335803037
  0.2209386451199222  0.6110458524738007  0.5005488888284049
  0.3288906680238028  0.4975838226569849  0.5053560606565881
  0.3860090222597847  0.6104304338323630  0.5052960559517032
  0.6705945111320304  0.4999871300999814  0.5045420415827166
  0.7268914462497946  0.6120624413178746  0.5053579302185582
  0.8353218368945861  0.4999780969723915  0.4997935795946020
  0.8912076625022891  0.6112786665180607  0.4998541113222288
  0.0015358124942964  0.6672966855609204  0.4981654842745726
  0.0568739483243590  0.7788257327523098  0.4978560617968810
  0.1666628545249580  0.6671660015830128  0.4986483287719778
  0.2227055918162435  0.7787041779709512  0.4982069450705282
  0.3315273577709874  0.6664217362549323  0.5023564064315522
  0.3883704703331077  0.7777409198388057  0.5003123322707097
  0.4956821566417489  0.6619741829455634  0.5081348865334618
  0.5534994699565843  0.7729989246399640  0.5028912913185835
  0.6679625630496417  0.6627614630254755  0.5102652893374682
  0.7205805608208848  0.7734469124446335  0.5035735511779151
  0.8366346478765436  0.6673981592057885  0.5017651653645103
  0.8905391725438392  0.7784519159711323  0.4998788736196360
  0.0014753152694595  0.8345241182932384  0.4980717189759929
  0.0566883380393080  0.9456291157251400  0.4974985066387774
  0.1676900902198781  0.8347058707487349  0.4976502768453770
  0.2233813927164121  0.9462163560647383  0.4976004720289708
  0.3334934695562524  0.8341862621224649  0.4985032597605112
  0.3891965525823409  0.9455926655640283  0.4977531681008216
  0.4991964971045277  0.8312731025240581  0.5000516385569256
  0.5548920555308783  0.9430582917321999  0.4984345272671433
  0.6653040794952005  0.8299613347892389  0.5024307316713035
  0.7207612463302411  0.9412936686653310  0.4994518782356749
  0.8329847943912014  0.8316686870551493  0.4999381503527047
  0.8886378944225726  0.9432698445464354  0.4983159524232335
  0.5273944223045035  0.5553333796936357  0.5552699922391326
 
  0.00000000E+00  0.00000000E+00  0.00000000E+00
  0.00000000E+00  0.00000000E+00  0.00000000E+00
  0.00000000E+00  0.00000000E+00  0.00000000E+00
  0.00000000E+00  0.00000000E+00  0.00000000E+00
  0.00000000E+00  0.00000000E+00  0.00000000E+00
  0.00000000E+00  0.00000000E+00  0.00000000E+00
  0.00000000E+00  0.00000000E+00  0.00000000E+00
  0.00000000E+00  0.00000000E+00  0.00000000E+00
  0.00000000E+00  0.00000000E+00  0.00000000E+00
  0.00000000E+00  0.00000000E+00  0.00000000E+00
  0.00000000E+00  0.00000000E+00  0.00000000E+00
  0.00000000E+00  0.00000000E+00  0.00000000E+00
  0.00000000E+00  0.00000000E+00  0.00000000E+00
  0.00000000E+00  0.00000000E+00  0.00000000E+00
  0.00000000E+00  0.00000000E+00  0.00000000E+00
  0.00000000E+00  0.00000000E+00  0.00000000E+00
  0.00000000E+00  0.00000000E+00  0.00000000E+00
  0.00000000E+00  0.00000000E+00  0.00000000E+00
  0.00000000E+00  0.00000000E+00  0.00000000E+00
  0.00000000E+00  0.00000000E+00  0.00000000E+00
  0.00000000E+00  0.00000000E+00  0.00000000E+00
  0.00000000E+00  0.00000000E+00  0.00000000E+00
  0.00000000E+00  0.00000000E+00  0.00000000E+00
  0.00000000E+00  0.00000000E+00  0.00000000E+00
  0.00000000E+00  0.00000000E+00  0.00000000E+00
  0.00000000E+00  0.00000000E+00  0.00000000E+00
  0.00000000E+00  0.00000000E+00  0.00000000E+00
  0.00000000E+00  0.00000000E+00  0.00000000E+00
  0.00000000E+00  0.00000000E+00  0.00000000E+00
  0.00000000E+00  0.00000000E+00  0.00000000E+00
  0.00000000E+00  0.00000000E+00  0.00000000E+00
  0.00000000E+00  0.00000000E+00  0.00000000E+00
  0.00000000E+00  0.00000000E+00  0.00000000E+00
  0.00000000E+00  0.00000000E+00  0.00000000E+00
  0.00000000E+00  0.00000000E+00  0.00000000E+00
  0.00000000E+00  0.00000000E+00  0.00000000E+00
  0.00000000E+00  0.00000000E+00  0.00000000E+00
  0.00000000E+00  0.00000000E+00  0.00000000E+00
  0.00000000E+00  0.00000000E+00  0.00000000E+00
  0.00000000E+00  0.00000000E+00  0.00000000E+00
  0.00000000E+00  0.00000000E+00  0.00000000E+00
  0.00000000E+00  0.00000000E+00  0.00000000E+00
  0.00000000E+00  0.00000000E+00  0.00000000E+00
  0.00000000E+00  0.00000000E+00  0.00000000E+00
  0.00000000E+00  0.00000000E+00  0.00000000E+00
  0.00000000E+00  0.00000000E+00  0.00000000E+00
  0.00000000E+00  0.00000000E+00  0.00000000E+00
  0.00000000E+00  0.00000000E+00  0.00000000E+00
  0.00000000E+00  0.00000000E+00  0.00000000E+00
  0.00000000E+00  0.00000000E+00  0.00000000E+00
  0.00000000E+00  0.00000000E+00  0.00000000E+00
  0.00000000E+00  0.00000000E+00  0.00000000E+00
  0.00000000E+00  0.00000000E+00  0.00000000E+00
  0.00000000E+00  0.00000000E+00  0.00000000E+00
  0.00000000E+00  0.00000000E+00  0.00000000E+00
  0.00000000E+00  0.00000000E+00  0.00000000E+00
  0.00000000E+00  0.00000000E+00  0.00000000E+00
  0.00000000E+00  0.00000000E+00  0.00000000E+00
  0.00000000E+00  0.00000000E+00  0.00000000E+00
  0.00000000E+00  0.00000000E+00  0.00000000E+00
  0.00000000E+00  0.00000000E+00  0.00000000E+00
  0.00000000E+00  0.00000000E+00  0.00000000E+00
  0.00000000E+00  0.00000000E+00  0.00000000E+00
  0.00000000E+00  0.00000000E+00  0.00000000E+00
  0.00000000E+00  0.00000000E+00  0.00000000E+00
  0.00000000E+00  0.00000000E+00  0.00000000E+00
  0.00000000E+00  0.00000000E+00  0.00000000E+00
  0.00000000E+00  0.00000000E+00  0.00000000E+00
  0.00000000E+00  0.00000000E+00  0.00000000E+00
  0.00000000E+00  0.00000000E+00  0.00000000E+00
  0.00000000E+00  0.00000000E+00  0.00000000E+00
