POSCAR-c3n4                             
   1.1200000000000001     
    13.8434242346000005   -0.1907404740000000    0.0000000000000000
    -6.9217121174000003   11.6951909939000007    0.0000000000000000
     0.0000000000000000    0.0000000000000000   15.0000000000000000
   C    N    Ge   C    O 
    24    32     1     1     1
Direct
  0.0756470738333803  0.1474408698750267  0.4576656618555504
  0.2867812131760630  0.4430091006682417  0.4931142846008427
  0.1285010651681162  0.4366445043651268  0.4881554858219630
  0.4915705692855212  0.0553445355516544  0.4744811912960358
  0.4225761863361370  0.4211288530863868  0.4744070732340262
  0.0839730616593997  0.0172303213902083  0.4934234561815884
  0.0643400694035918  0.7039494912731925  0.5128545370604982
  0.3470439582635407  0.9011119412760493  0.4578188423908003
  0.0630637565247625  0.8594353142388584  0.5218681724609766
  0.4521559335252761  0.5879475487926200  0.5135448337541746
  0.4859472958074633  0.8914043220211525  0.4712096282652070
  0.0996927142469985  0.5748398354452746  0.5049587654315104
  0.6478212379686639  0.2022195906038675  0.4929458821147108
  0.8006138992878746  0.3673014342507486  0.4818653809248019
  0.5622296121094976  0.4168971690843364  0.4471094038844328
  0.9259632596227192  0.0207801377205286  0.4709060780838783
  0.9630386029543416  0.3988955857941008  0.4776380126225632
  0.6376167770709742  0.0480013391302165  0.5163270965995181
  0.6118752967777894  0.7259191380543371  0.5108909698070718
  0.7802137816262373  0.8822300044465194  0.5120178101995521
  0.6269064260903718  0.8938807469526040  0.5084667770035551
  0.9288394858429569  0.5377924274055346  0.4948812216610960
  0.9205456178879885  0.8714106054212820  0.5299240056942764
  0.5941234994328966  0.5756660147404915  0.4694299199030212
  0.1878574587733510  0.3961810218405972  0.4856116447208123
  0.1388977347190306  0.1255532880488062  0.4770561306690269
  0.3890156599044090  0.9994214155349184  0.4622141187342876
  0.4647982881060386  0.3646736788546932  0.4588482084641470
  0.3247839282599685  0.3815878577293077  0.4801357349363684
  0.5458161359168869  0.1554167614774258  0.4759513392450501
  0.1258579846366743  0.9654713139749660  0.5060783892912681
  0.9772483910471550  0.9723952633102684  0.4955994830895065
  0.1090945874581024  0.8079432944890286  0.5156437747970131
  0.1340770510874947  0.6724470897764618  0.5183073938446725
  0.3505053217136762  0.5476584492968044  0.5140244298239125
  0.5367116745946845  0.8433583734108865  0.4715822458455037
  0.3850358253106165  0.8401894376045362  0.4584260124573163
  0.5158540571175934  0.6830355674910820  0.5380602755636659
  0.1667271466259450  0.5412188086981828  0.5030458295451865
  0.9987885807870001  0.5040085615451346  0.4930419113615017
  0.7001161610697864  0.3034917522777789  0.4826479785501334
  0.6893779338985198  0.1481957247786312  0.5233659633104963
  0.8280970583189742  0.9735580032187769  0.4719082132104262
  0.0310876212195055  0.3693395066221896  0.4746088615831567
  0.8658773861778570  0.3329761890381135  0.4684936612689299
  0.9869317250704270  0.1231492892116250  0.4448295840371657
  0.6756956935063698  0.9882328611544793  0.5371590242742315
  0.5374762521577594  0.9965829174290164  0.4858213629741073
  0.6737015858739355  0.8343591597723403  0.5169015185671100
  0.6522991217087508  0.6779735338705066  0.4757151155354080
  0.8314823405673692  0.4691392418799083  0.4910705886963740
  0.9642102427061801  0.8193402992229153  0.5440960230333474
  0.8216929426800021  0.8350481766017168  0.5455554109849956
  0.9653689544750392  0.6394306072932494  0.5009030497793887
  0.6298331608952878  0.5165006030185779  0.4472305307575795
  0.4893886558305240  0.5286049209532351  0.4846181285707090
  0.3050750634508788  0.6542825429353059  0.5418965823045667
  0.2465582823771086  0.5529306850200442  0.6835238191946118
  0.2637008796475300  0.5611454826753857  0.7501231699997035

  0.00000000E+00  0.00000000E+00  0.00000000E+00
  0.00000000E+00  0.00000000E+00  0.00000000E+00
  0.00000000E+00  0.00000000E+00  0.00000000E+00
  0.00000000E+00  0.00000000E+00  0.00000000E+00
  0.00000000E+00  0.00000000E+00  0.00000000E+00
  0.00000000E+00  0.00000000E+00  0.00000000E+00
  0.00000000E+00  0.00000000E+00  0.00000000E+00
  0.00000000E+00  0.00000000E+00  0.00000000E+00
  0.00000000E+00  0.00000000E+00  0.00000000E+00
  0.00000000E+00  0.00000000E+00  0.00000000E+00
  0.00000000E+00  0.00000000E+00  0.00000000E+00
  0.00000000E+00  0.00000000E+00  0.00000000E+00
  0.00000000E+00  0.00000000E+00  0.00000000E+00
  0.00000000E+00  0.00000000E+00  0.00000000E+00
  0.00000000E+00  0.00000000E+00  0.00000000E+00
  0.00000000E+00  0.00000000E+00  0.00000000E+00
  0.00000000E+00  0.00000000E+00  0.00000000E+00
  0.00000000E+00  0.00000000E+00  0.00000000E+00
  0.00000000E+00  0.00000000E+00  0.00000000E+00
  0.00000000E+00  0.00000000E+00  0.00000000E+00
  0.00000000E+00  0.00000000E+00  0.00000000E+00
  0.00000000E+00  0.00000000E+00  0.00000000E+00
  0.00000000E+00  0.00000000E+00  0.00000000E+00
  0.00000000E+00  0.00000000E+00  0.00000000E+00
  0.00000000E+00  0.00000000E+00  0.00000000E+00
  0.00000000E+00  0.00000000E+00  0.00000000E+00
  0.00000000E+00  0.00000000E+00  0.00000000E+00
  0.00000000E+00  0.00000000E+00  0.00000000E+00
  0.00000000E+00  0.00000000E+00  0.00000000E+00
  0.00000000E+00  0.00000000E+00  0.00000000E+00
  0.00000000E+00  0.00000000E+00  0.00000000E+00
  0.00000000E+00  0.00000000E+00  0.00000000E+00
  0.00000000E+00  0.00000000E+00  0.00000000E+00
  0.00000000E+00  0.00000000E+00  0.00000000E+00
  0.00000000E+00  0.00000000E+00  0.00000000E+00
  0.00000000E+00  0.00000000E+00  0.00000000E+00
  0.00000000E+00  0.00000000E+00  0.00000000E+00
  0.00000000E+00  0.00000000E+00  0.00000000E+00
  0.00000000E+00  0.00000000E+00  0.00000000E+00
  0.00000000E+00  0.00000000E+00  0.00000000E+00
  0.00000000E+00  0.00000000E+00  0.00000000E+00
  0.00000000E+00  0.00000000E+00  0.00000000E+00
  0.00000000E+00  0.00000000E+00  0.00000000E+00
  0.00000000E+00  0.00000000E+00  0.00000000E+00
  0.00000000E+00  0.00000000E+00  0.00000000E+00
  0.00000000E+00  0.00000000E+00  0.00000000E+00
  0.00000000E+00  0.00000000E+00  0.00000000E+00
  0.00000000E+00  0.00000000E+00  0.00000000E+00
  0.00000000E+00  0.00000000E+00  0.00000000E+00
  0.00000000E+00  0.00000000E+00  0.00000000E+00
  0.00000000E+00  0.00000000E+00  0.00000000E+00
  0.00000000E+00  0.00000000E+00  0.00000000E+00
  0.00000000E+00  0.00000000E+00  0.00000000E+00
  0.00000000E+00  0.00000000E+00  0.00000000E+00
  0.00000000E+00  0.00000000E+00  0.00000000E+00
  0.00000000E+00  0.00000000E+00  0.00000000E+00
  0.00000000E+00  0.00000000E+00  0.00000000E+00
  0.00000000E+00  0.00000000E+00  0.00000000E+00
  0.00000000E+00  0.00000000E+00  0.00000000E+00
