POSCAR-clean                            
   1.00000000000000     
    14.9005570072320008   -0.0604177924913694    0.0000000000000000
    -7.4502785035659249   12.7875044807483356    0.0000000000000000
     0.0000000000000000    0.0000000000000000   15.0000000000000000
   C    N    C    Cr
    52     1    17     1
Direct
 -0.0003868609760226  0.9996755941095696  0.4979247081243321
  0.0557105711855753  0.1113314679003129  0.4980566917937698
  0.1677306676535632  0.0024070611957285  0.4973797852079124
  0.2237385307434796  0.1140973758003675  0.4982435211641822
  0.3341127816674248  0.0026085258534047  0.4975982036045529
  0.3903480819355555  0.1139290966480380  0.4982661808088861
  0.4997693722422746  0.0001279860563448  0.4972361005077736
  0.5559071301884762  0.1111494050833649  0.4968887191995181
  0.6653428735288960  0.9971055215730530  0.4986355393479142
  0.7216695818254079  0.1086362821068763  0.4976448624250196
  0.8312840885918560  0.9966080163593969  0.4986255563166188
  0.8876188904924722  0.1083985328517711  0.4976163392350307
  0.9992572425678111  0.1653662156609996  0.4977992658831231
  0.0550771679622221  0.2770156590882761  0.4985660993397059
  0.1676623358426755  0.1686048523336843  0.4988234733912654
  0.2238048636416479  0.2805301776549418  0.5001357334359221
  0.3357643873868514  0.1710655463248851  0.4997032240263897
  0.3920556992566382  0.2822795718837239  0.5039282881805884
  0.5012040841935372  0.1676800915644429  0.4976970545429981
  0.5576983062858194  0.2789179893542564  0.5003387253660271
  0.6669174392857531  0.1648414904034049  0.4971844118386436
  0.7232181136388650  0.2760227767476517  0.4975492017410518
  0.8327980560704090  0.1643468773190498  0.4976080079228431
  0.8887351345404759  0.2757968281166915  0.4977401924786148
  0.9997564839951133  0.3321476034792306  0.4983679408654026
  0.0549269624343274  0.4438550636811384  0.4989083482986488
  0.1665878581471969  0.3340754793913429  0.5000987092932357
  0.2202869321558986  0.4454042463407379  0.5016381588680523
  0.3363401315577712  0.3390173521155266  0.5022156973770606
  0.3882184769102916  0.4502084350193107  0.5039699024977917
  0.5043119996264932  0.3367922913600012  0.5077604823926641
  0.5633686380587762  0.4464861439910943  0.5193118273644731
  0.6685990614733004  0.3319261661499702  0.4992363285241527
  0.7258527740619297  0.4428412453169115  0.5002734840955753
  0.8340311283123928  0.3316062843155840  0.4976168810161416
  0.8901970184622505  0.4433822573484311  0.4976906330605641
  0.0005885533530320  0.4998449686046686  0.4982323220720288
  0.0557544119438711  0.6113298037169620  0.4982716225397143
  0.1650534150960482  0.5003385773977161  0.5002570145540529
  0.2199949102609165  0.6118185488217741  0.4993737004109906
  0.3308978572402777  0.5018643987259818  0.5037729073016350
  0.3857754436179173  0.6153195124907564  0.5060431573231458
  0.6717670082590689  0.4975730426726063  0.5075844577537154
  0.7273193688003824  0.6103891149382272  0.5042630858039903
  0.8362423656470135  0.4991799895547459  0.4982860432640114
  0.8914603430616700  0.6107843493234106  0.4990742872267864
  0.0014142098323827  0.6671952577107303  0.4983925662003045
  0.0561912192228053  0.7789335213582905  0.4980189880259231
  0.1661037749276929  0.6677263286535310  0.4982794638285746
  0.2218376520380745  0.7793622366191545  0.4979995542080491
  0.3303943501478580  0.6687403828478223  0.5008817561024494
  0.3871175619431958  0.7795425777392082  0.4999852994876071
  0.4912117385078165  0.6668199863934110  0.5138452330125164
  0.5497908259991352  0.7734967443499365  0.5062105100779821
  0.6688376961936590  0.6606859982453959  0.5058583708025457
  0.7189660451062105  0.7712903920466584  0.5026651260957143
  0.8369307279158391  0.6665710037192448  0.5004491077816002
  0.8897195179204214  0.7775813824416095  0.4993422253772048
  0.0009354783558912  0.8342602927379936  0.4980127181614502
  0.0562643267955079  0.9456447529566954  0.4975353034591745
  0.1670754527264370  0.8352744503659351  0.4977301378142000
  0.2228849153985034  0.9467350462935920  0.4975444756399811
  0.3325252646561233  0.8353059409400226  0.4982394457861171
  0.3888812187349280  0.9464479053376741  0.4975783170281520
  0.4977604546824113  0.8325491793032722  0.5006636422422247
  0.5546420394099895  0.9437025520990984  0.4982923176505222
  0.6623949183157400  0.8272110545884324  0.5036609598661597
  0.7189891953941329  0.9391806638959095  0.5001102886121078
  0.8318417643064976  0.8305222654808184  0.5001201370865254
  0.8876067289400772  0.9423444244489605  0.4988794006697611
  0.5275334014180015  0.5553677448097967  0.5489277562099181
 
  0.00000000E+00  0.00000000E+00  0.00000000E+00
  0.00000000E+00  0.00000000E+00  0.00000000E+00
  0.00000000E+00  0.00000000E+00  0.00000000E+00
  0.00000000E+00  0.00000000E+00  0.00000000E+00
  0.00000000E+00  0.00000000E+00  0.00000000E+00
  0.00000000E+00  0.00000000E+00  0.00000000E+00
  0.00000000E+00  0.00000000E+00  0.00000000E+00
  0.00000000E+00  0.00000000E+00  0.00000000E+00
  0.00000000E+00  0.00000000E+00  0.00000000E+00
  0.00000000E+00  0.00000000E+00  0.00000000E+00
  0.00000000E+00  0.00000000E+00  0.00000000E+00
  0.00000000E+00  0.00000000E+00  0.00000000E+00
  0.00000000E+00  0.00000000E+00  0.00000000E+00
  0.00000000E+00  0.00000000E+00  0.00000000E+00
  0.00000000E+00  0.00000000E+00  0.00000000E+00
  0.00000000E+00  0.00000000E+00  0.00000000E+00
  0.00000000E+00  0.00000000E+00  0.00000000E+00
  0.00000000E+00  0.00000000E+00  0.00000000E+00
  0.00000000E+00  0.00000000E+00  0.00000000E+00
  0.00000000E+00  0.00000000E+00  0.00000000E+00
  0.00000000E+00  0.00000000E+00  0.00000000E+00
  0.00000000E+00  0.00000000E+00  0.00000000E+00
  0.00000000E+00  0.00000000E+00  0.00000000E+00
  0.00000000E+00  0.00000000E+00  0.00000000E+00
  0.00000000E+00  0.00000000E+00  0.00000000E+00
  0.00000000E+00  0.00000000E+00  0.00000000E+00
  0.00000000E+00  0.00000000E+00  0.00000000E+00
  0.00000000E+00  0.00000000E+00  0.00000000E+00
  0.00000000E+00  0.00000000E+00  0.00000000E+00
  0.00000000E+00  0.00000000E+00  0.00000000E+00
  0.00000000E+00  0.00000000E+00  0.00000000E+00
  0.00000000E+00  0.00000000E+00  0.00000000E+00
  0.00000000E+00  0.00000000E+00  0.00000000E+00
  0.00000000E+00  0.00000000E+00  0.00000000E+00
  0.00000000E+00  0.00000000E+00  0.00000000E+00
  0.00000000E+00  0.00000000E+00  0.00000000E+00
  0.00000000E+00  0.00000000E+00  0.00000000E+00
  0.00000000E+00  0.00000000E+00  0.00000000E+00
  0.00000000E+00  0.00000000E+00  0.00000000E+00
  0.00000000E+00  0.00000000E+00  0.00000000E+00
  0.00000000E+00  0.00000000E+00  0.00000000E+00
  0.00000000E+00  0.00000000E+00  0.00000000E+00
  0.00000000E+00  0.00000000E+00  0.00000000E+00
  0.00000000E+00  0.00000000E+00  0.00000000E+00
  0.00000000E+00  0.00000000E+00  0.00000000E+00
  0.00000000E+00  0.00000000E+00  0.00000000E+00
  0.00000000E+00  0.00000000E+00  0.00000000E+00
  0.00000000E+00  0.00000000E+00  0.00000000E+00
  0.00000000E+00  0.00000000E+00  0.00000000E+00
  0.00000000E+00  0.00000000E+00  0.00000000E+00
  0.00000000E+00  0.00000000E+00  0.00000000E+00
  0.00000000E+00  0.00000000E+00  0.00000000E+00
  0.00000000E+00  0.00000000E+00  0.00000000E+00
  0.00000000E+00  0.00000000E+00  0.00000000E+00
  0.00000000E+00  0.00000000E+00  0.00000000E+00
  0.00000000E+00  0.00000000E+00  0.00000000E+00
  0.00000000E+00  0.00000000E+00  0.00000000E+00
  0.00000000E+00  0.00000000E+00  0.00000000E+00
  0.00000000E+00  0.00000000E+00  0.00000000E+00
  0.00000000E+00  0.00000000E+00  0.00000000E+00
  0.00000000E+00  0.00000000E+00  0.00000000E+00
  0.00000000E+00  0.00000000E+00  0.00000000E+00
  0.00000000E+00  0.00000000E+00  0.00000000E+00
  0.00000000E+00  0.00000000E+00  0.00000000E+00
  0.00000000E+00  0.00000000E+00  0.00000000E+00
  0.00000000E+00  0.00000000E+00  0.00000000E+00
  0.00000000E+00  0.00000000E+00  0.00000000E+00
  0.00000000E+00  0.00000000E+00  0.00000000E+00
  0.00000000E+00  0.00000000E+00  0.00000000E+00
  0.00000000E+00  0.00000000E+00  0.00000000E+00
  0.00000000E+00  0.00000000E+00  0.00000000E+00
