POSCAR-c3n4                             
  0.80000000000000004     
    13.8434242346000005   -0.1907404740000000    0.0000000000000000
    -6.9217121174000003   11.6951909939000007    0.0000000000000000
     0.0000000000000000    0.0000000000000000   15.0000000000000000
   C    N    Ge   C    O 
    24    32     1     1     1
Direct
  0.0813996638215226  0.2206312184628338  0.3966300823686235
  0.2689856512384378  0.3397716185249416  0.2800497227609594
  0.1272898295712672  0.4383274581857745  0.3038617461890381
  0.4370745712742835  0.0935609640568961  0.6631426765601676
  0.4198758629792918  0.2732978518234599  0.3278930913044547
  0.1545944063078891  0.1899373673490251  0.5687162259983191
  0.0752898139932834  0.7487959097023278  0.5271278389606857
  0.2188785903580099  0.8818571565464444  0.6801203679954112
  0.2223854882094618  0.1011591140237101  0.7048964786824503
  0.4405588393412777  0.4972259106478102  0.3852114737302208
  0.3974248890293531  0.8465046361238389  0.6869527794004229
  0.1047044525429090  0.5918179421508412  0.4239010035396222
  0.6130738631399956  0.2419534061936851  0.5462052969227774
  0.8071072962808870  0.4931292381875106  0.2450701251331387
  0.6247965462169736  0.2877190251072485  0.3383615785745786
  0.9363391336730779  0.0071453241015496  0.4809126182807074
  0.0179835325256263  0.5443759403633999  0.2325692933093244
  0.6149995509180655  0.0453106783348720  0.6046347498021545
  0.5765402307330204  0.6144183930516099  0.5414706563789726
  0.7861514746743590  0.8305730306164265  0.5933211985549114
  0.5800344565301569  0.8216307728805017  0.6341329611075032
  0.9363429719952424  0.6531957264988952  0.3723170583887881
  0.9923009494281971  0.9828801830339000  0.6747040037495196
  0.5938150130810619  0.4321130250811673  0.4685672469237191
  0.1302776842914093  0.3086152141945183  0.2972898706772285
  0.1707316537675825  0.2816740824876623  0.4866625661615463
  0.3053655400333257  0.0383942568465922  0.7143292697242617
  0.4890285460397670  0.2081395186558927  0.3061600546463126
  0.2912845588436161  0.2339745947927589  0.2859128967707575
  0.5062412632741493  0.2198792650009757  0.6163647019936813
  0.2587898866040886  0.2130622028810619  0.6360810174390722
  0.0257708770493022  0.0612581733398474  0.5746235075297385
  0.1276604341893000  0.8575491250143662  0.6038113833369559
  0.1309996815649734  0.6618966174614866  0.5187657125333568
  0.3628907386449107  0.4868188596406354  0.2999247368266721
  0.4495147898893376  0.7597138574380428  0.6740508134394568
  0.2659075780582447  0.7964375906587005  0.7143139305453469
  0.4630680150559443  0.5867029634552284  0.4734036228856202
  0.1475333888807343  0.4978898180358000  0.4085423226487647
  0.0290336382382862  0.6046809683697187  0.3404544598637974
  0.7172887697716377  0.3568480791907641  0.2605063201652474
  0.6795528943944372  0.1692990045623250  0.5473305737404996
  0.8200672658062375  0.8804113022576656  0.4882699422512611
  0.0910832332837338  0.4772029762475164  0.2136666887704713
  0.9142487336560938  0.5230312355187551  0.1678874633654369
  0.9714030655393326  0.0903272261317319  0.3885644272368697
  0.6678054494214568  0.9615553680857962  0.6073392194986014
  0.4818416952659388  0.9949968517919562  0.6537443577766441
  0.6375222380759383  0.7368294480409477  0.6092456495364366
  0.6443665340179794  0.5440462217211793  0.5369923825670619
  0.8171881256599045  0.5974902049960217  0.3178475012665840
  0.0935575337954665  0.0172892690348210  0.7493316263418770
  0.8609623224433778  0.8706042936631357  0.6860700156378537
  0.9768749386584333  0.7429406558950622  0.4601766268881803
  0.6442650438998871  0.3397057766307408  0.4619411718931902
  0.4832787335626980  0.3974700544295559  0.3962347762250959
  0.2605477921864147  0.5068060039558174  0.5533595217226500
  0.2988620567224822  0.4501114649054336  0.8400730566991688
  0.2673595031429426  0.4543380752640788  0.9299575366511824

  0.00000000E+00  0.00000000E+00  0.00000000E+00
  0.00000000E+00  0.00000000E+00  0.00000000E+00
  0.00000000E+00  0.00000000E+00  0.00000000E+00
  0.00000000E+00  0.00000000E+00  0.00000000E+00
  0.00000000E+00  0.00000000E+00  0.00000000E+00
  0.00000000E+00  0.00000000E+00  0.00000000E+00
  0.00000000E+00  0.00000000E+00  0.00000000E+00
  0.00000000E+00  0.00000000E+00  0.00000000E+00
  0.00000000E+00  0.00000000E+00  0.00000000E+00
  0.00000000E+00  0.00000000E+00  0.00000000E+00
  0.00000000E+00  0.00000000E+00  0.00000000E+00
  0.00000000E+00  0.00000000E+00  0.00000000E+00
  0.00000000E+00  0.00000000E+00  0.00000000E+00
  0.00000000E+00  0.00000000E+00  0.00000000E+00
  0.00000000E+00  0.00000000E+00  0.00000000E+00
  0.00000000E+00  0.00000000E+00  0.00000000E+00
  0.00000000E+00  0.00000000E+00  0.00000000E+00
  0.00000000E+00  0.00000000E+00  0.00000000E+00
  0.00000000E+00  0.00000000E+00  0.00000000E+00
  0.00000000E+00  0.00000000E+00  0.00000000E+00
  0.00000000E+00  0.00000000E+00  0.00000000E+00
  0.00000000E+00  0.00000000E+00  0.00000000E+00
  0.00000000E+00  0.00000000E+00  0.00000000E+00
  0.00000000E+00  0.00000000E+00  0.00000000E+00
  0.00000000E+00  0.00000000E+00  0.00000000E+00
  0.00000000E+00  0.00000000E+00  0.00000000E+00
  0.00000000E+00  0.00000000E+00  0.00000000E+00
  0.00000000E+00  0.00000000E+00  0.00000000E+00
  0.00000000E+00  0.00000000E+00  0.00000000E+00
  0.00000000E+00  0.00000000E+00  0.00000000E+00
  0.00000000E+00  0.00000000E+00  0.00000000E+00
  0.00000000E+00  0.00000000E+00  0.00000000E+00
  0.00000000E+00  0.00000000E+00  0.00000000E+00
  0.00000000E+00  0.00000000E+00  0.00000000E+00
  0.00000000E+00  0.00000000E+00  0.00000000E+00
  0.00000000E+00  0.00000000E+00  0.00000000E+00
  0.00000000E+00  0.00000000E+00  0.00000000E+00
  0.00000000E+00  0.00000000E+00  0.00000000E+00
  0.00000000E+00  0.00000000E+00  0.00000000E+00
  0.00000000E+00  0.00000000E+00  0.00000000E+00
  0.00000000E+00  0.00000000E+00  0.00000000E+00
  0.00000000E+00  0.00000000E+00  0.00000000E+00
  0.00000000E+00  0.00000000E+00  0.00000000E+00
  0.00000000E+00  0.00000000E+00  0.00000000E+00
  0.00000000E+00  0.00000000E+00  0.00000000E+00
  0.00000000E+00  0.00000000E+00  0.00000000E+00
  0.00000000E+00  0.00000000E+00  0.00000000E+00
  0.00000000E+00  0.00000000E+00  0.00000000E+00
  0.00000000E+00  0.00000000E+00  0.00000000E+00
  0.00000000E+00  0.00000000E+00  0.00000000E+00
  0.00000000E+00  0.00000000E+00  0.00000000E+00
  0.00000000E+00  0.00000000E+00  0.00000000E+00
  0.00000000E+00  0.00000000E+00  0.00000000E+00
  0.00000000E+00  0.00000000E+00  0.00000000E+00
  0.00000000E+00  0.00000000E+00  0.00000000E+00
  0.00000000E+00  0.00000000E+00  0.00000000E+00
  0.00000000E+00  0.00000000E+00  0.00000000E+00
  0.00000000E+00  0.00000000E+00  0.00000000E+00
  0.00000000E+00  0.00000000E+00  0.00000000E+00
