POSCAR-c3n4                             
  0.80000000000000004     
    13.8434242346000005   -0.1907404740000000    0.0000000000000000
    -6.9217121174000003   11.6951909939000007    0.0000000000000000
     0.0000000000000000    0.0000000000000000   15.0000000000000000
   C    N    Ge   C    O 
    24    32     1     1     1
Direct
  0.0814531230791063  0.2207974443344748  0.3967905711855583
  0.2688502710587988  0.3396994731631384  0.2799147872767297
  0.1273274053537446  0.4382992654837142  0.3039230475216032
  0.4370880747777180  0.0937037759104177  0.6632980037676736
  0.4196488180676821  0.2729548213228513  0.3278062641898539
  0.1545445515543796  0.1899340511415106  0.5686688001439897
  0.0751355227259525  0.7485809576603740  0.5272869685413812
  0.2189735054108616  0.8819730411877914  0.6802842285798749
  0.2223019649315017  0.1014007990175798  0.7048013197588719
  0.4406243930405992  0.4972090283293132  0.3848489981838083
  0.3975708696066441  0.8465820455955324  0.6870261870145566
  0.1047363125407295  0.5919553798723490  0.4239432480085755
  0.6132545874287921  0.2421802802334451  0.5463423485799831
  0.8069680975823783  0.4929414220305600  0.2451645579820655
  0.6247276483040788  0.2876162678271972  0.3383395629857639
  0.9361699559482585  0.0070812529420443  0.4807703194965388
  0.0182553976903107  0.5447936030999312  0.2325744354912162
  0.6149300307845448  0.0452055108060541  0.6045316210058638
  0.5766373808925674  0.6143196223130147  0.5415331818227141
  0.7862623852095822  0.8304562876120228  0.5933277165375582
  0.5800217130127084  0.8214010697422430  0.6341464221647605
  0.9361200826687361  0.6531848396200842  0.3725239532646779
 -0.0075469837802167 -0.0168204903375656  0.6746890559260725
  0.5940111388581284  0.4321970959323074  0.4685823274985979
  0.1302470192016022  0.3085710113895290  0.2971549395370908
  0.1706226249014596  0.2816136800286364  0.4866587766278340
  0.3051488518688837  0.0385052887438635  0.7141259490199520
  0.4887487250852301  0.2077017225284015  0.3063356386090855
  0.2911581242422307  0.2338526781692942  0.2858571722573015
  0.5062748176856622  0.2199907565820191  0.6164363587224171
  0.2587004427340012  0.2132179767728433  0.6360605117366968
  0.0257249221568105  0.0612452643583768  0.5743701383343911
  0.1276184324651285  0.8573796715111757  0.6039871797429510
  0.1309416000981656  0.6616561427000014  0.5190075499181549
  0.3626762732871151  0.4866380423781076  0.2997408328272801
  0.4497868516345771  0.7597547992762824  0.6744558989396401
  0.2660082324915670  0.7963869109040429  0.7143848635684821
  0.4633085988391893  0.5866854468059132  0.4732514260352210
  0.1473844107697164  0.4977440628033653  0.4087202301601705
  0.0290127615131368  0.6047908239975731  0.3404247616263924
  0.7167499845053488  0.3565571092965248  0.2601710841391976
  0.6796683003362950  0.1693323711322061  0.5474254971167877
  0.8199262287988511  0.8803604894158823  0.4881361184600674
  0.0914215006257199  0.4774895091745520  0.2135684778421232
  0.9142396648196001  0.5230739476352836  0.1678922569488113
  0.9711125753920012  0.0906003784172322  0.3885632453566978
  0.6676279871642936 -0.0386733471614696  0.6073254218286308
  0.4819691560600964 -0.0048136522024413  0.6538648236454480
  0.6375491136451014  0.7366399152203665  0.6091361250737178
  0.6447372270641534  0.5443529601164839  0.5367134267961169
  0.8172107737482472  0.5972490846243144  0.3179041335849775
  0.0935747666381662  0.0175389389622668  0.7492373722484774
  0.8611893812812891  0.8707626192118275  0.6860998040403686
 -0.0233802423352815  0.7427034668886616  0.4604351394277710
  0.6442771795019990  0.3396946781327323  0.4619098143435811
  0.4833971262230297  0.3975134404035138  0.3962015770747480
  0.2612152418417915  0.5073234670018202  0.5535005073789544
  0.2990053380426356  0.4501906467186502  0.8400129668445325
  0.2672010425175982  0.4540453648670336 -0.0701879468690033

  0.00000000E+00  0.00000000E+00  0.00000000E+00
  0.00000000E+00  0.00000000E+00  0.00000000E+00
  0.00000000E+00  0.00000000E+00  0.00000000E+00
  0.00000000E+00  0.00000000E+00  0.00000000E+00
  0.00000000E+00  0.00000000E+00  0.00000000E+00
  0.00000000E+00  0.00000000E+00  0.00000000E+00
  0.00000000E+00  0.00000000E+00  0.00000000E+00
  0.00000000E+00  0.00000000E+00  0.00000000E+00
  0.00000000E+00  0.00000000E+00  0.00000000E+00
  0.00000000E+00  0.00000000E+00  0.00000000E+00
  0.00000000E+00  0.00000000E+00  0.00000000E+00
  0.00000000E+00  0.00000000E+00  0.00000000E+00
  0.00000000E+00  0.00000000E+00  0.00000000E+00
  0.00000000E+00  0.00000000E+00  0.00000000E+00
  0.00000000E+00  0.00000000E+00  0.00000000E+00
  0.00000000E+00  0.00000000E+00  0.00000000E+00
  0.00000000E+00  0.00000000E+00  0.00000000E+00
  0.00000000E+00  0.00000000E+00  0.00000000E+00
  0.00000000E+00  0.00000000E+00  0.00000000E+00
  0.00000000E+00  0.00000000E+00  0.00000000E+00
  0.00000000E+00  0.00000000E+00  0.00000000E+00
  0.00000000E+00  0.00000000E+00  0.00000000E+00
  0.00000000E+00  0.00000000E+00  0.00000000E+00
  0.00000000E+00  0.00000000E+00  0.00000000E+00
  0.00000000E+00  0.00000000E+00  0.00000000E+00
  0.00000000E+00  0.00000000E+00  0.00000000E+00
  0.00000000E+00  0.00000000E+00  0.00000000E+00
  0.00000000E+00  0.00000000E+00  0.00000000E+00
  0.00000000E+00  0.00000000E+00  0.00000000E+00
  0.00000000E+00  0.00000000E+00  0.00000000E+00
  0.00000000E+00  0.00000000E+00  0.00000000E+00
  0.00000000E+00  0.00000000E+00  0.00000000E+00
  0.00000000E+00  0.00000000E+00  0.00000000E+00
  0.00000000E+00  0.00000000E+00  0.00000000E+00
  0.00000000E+00  0.00000000E+00  0.00000000E+00
  0.00000000E+00  0.00000000E+00  0.00000000E+00
  0.00000000E+00  0.00000000E+00  0.00000000E+00
  0.00000000E+00  0.00000000E+00  0.00000000E+00
  0.00000000E+00  0.00000000E+00  0.00000000E+00
  0.00000000E+00  0.00000000E+00  0.00000000E+00
  0.00000000E+00  0.00000000E+00  0.00000000E+00
  0.00000000E+00  0.00000000E+00  0.00000000E+00
  0.00000000E+00  0.00000000E+00  0.00000000E+00
  0.00000000E+00  0.00000000E+00  0.00000000E+00
  0.00000000E+00  0.00000000E+00  0.00000000E+00
  0.00000000E+00  0.00000000E+00  0.00000000E+00
  0.00000000E+00  0.00000000E+00  0.00000000E+00
  0.00000000E+00  0.00000000E+00  0.00000000E+00
  0.00000000E+00  0.00000000E+00  0.00000000E+00
  0.00000000E+00  0.00000000E+00  0.00000000E+00
  0.00000000E+00  0.00000000E+00  0.00000000E+00
  0.00000000E+00  0.00000000E+00  0.00000000E+00
  0.00000000E+00  0.00000000E+00  0.00000000E+00
  0.00000000E+00  0.00000000E+00  0.00000000E+00
  0.00000000E+00  0.00000000E+00  0.00000000E+00
  0.00000000E+00  0.00000000E+00  0.00000000E+00
  0.00000000E+00  0.00000000E+00  0.00000000E+00
  0.00000000E+00  0.00000000E+00  0.00000000E+00
  0.00000000E+00  0.00000000E+00  0.00000000E+00
