POSCAR-clean                            
   1.00000000000000     
    14.8408194831008267    0.0016245414959561    0.0000000000000000
    -7.4204097415005412   12.7517140135859695    0.0000000000000000
     0.0000000000000000    0.0000000000000000   15.0000000000000000
   C    N    C    Cr
    21     1    48     1
Direct
 -0.0000712850245550  0.9998125990586129  0.4976645198370700
  0.0558370174288168  0.1114482597215174  0.4977512806047467
  0.1678900612764110  0.0018552870627429  0.4975048210716213
  0.2236131378675044  0.1133244990005841  0.4982899653259584
  0.3343882762254315  0.0017374059420608  0.4976095535250464
  0.3902818160728418  0.1133689876977399  0.4983129495017104
  0.5008088102817883  0.0003968583897956  0.4977584183133812
  0.5565269595955105  0.1123957445996801  0.4976693049242839
  0.6657825323209882  0.9985966322074347  0.4983448572990790
  0.7217971105972392  0.1103803168228410  0.4975999544073203
  0.8322182964411908  0.9979414295790564  0.4983694627382537
  0.8879467429849928  0.1095652217229978  0.4976372661129380
  0.9993070273178649  0.1658522253691669  0.4977265113618934
  0.0543378204502187  0.2769775435671914  0.4984735797541637
  0.1676099213567235  0.1682180275148177  0.4984917677083073
  0.2234515655591977  0.2798542006360682  0.5001950599603766
  0.3353901579842079  0.1701683594328051  0.4993699584827287
  0.3912790502664441  0.2813188968277672  0.5022976830395848
  0.5007637386620959  0.1680743148089079  0.4983358966627819
  0.5575388635197351  0.2796610241903792  0.5000387566125951
  0.6671658708840631  0.1667408621539417  0.4976400325811672
  0.7225347129584093  0.2769147927468867  0.4982161044046531
  0.8328084278349712  0.1650883930836283  0.4975705428901585
  0.8874378251368333  0.2762908679339561  0.4976841846094219
  0.9987642515348854  0.3325004674080617  0.4981999074979684
  0.0545472778075573  0.4438754008211798  0.4986642441775653
  0.1657223879672179  0.3330904403678068  0.5002527036156469
  0.2198904667592260  0.4440549189450987  0.5022585445776946
  0.3360388676127167  0.3379192586458937  0.5030693452389537
  0.3891149573955748  0.4488434360742985  0.5083831918877226
  0.5033280835091869  0.3382571424365045  0.5035464888500231
  0.5605484694689030  0.4491163280772669  0.5097030750318444
  0.6681438713983614  0.3325178619636704  0.4998878783479048
  0.7246839486950729  0.4432678035965112  0.5015077166996784
  0.8322906794344750  0.3318806867132007  0.4979472959604320
  0.8884288952642088  0.4431587638972143  0.4982283255527257
 -0.0004182922170754  0.4992096095493554  0.4980660331889691
  0.0554287028341325  0.6108669451092514  0.4980514997172121
  0.1649995855758480  0.4998484619341103  0.5005730306561346
  0.2206965800624672  0.6112405015663747  0.5005660997656260
  0.3300164724666214  0.4995218590416450  0.5053931466250933
  0.3861381340383598  0.6117972827416581  0.5054814778504700
  0.6697596190834533  0.4986483812211641  0.5054011777771227
  0.7257543002322605  0.6111805414690072  0.5052752068711829
  0.8352264176785393  0.4999924455703886  0.4997332793162503
  0.8906384633388726  0.6110593829185892  0.4997786607406215
  0.0010670392937467  0.6670737920185966  0.4982081178046406
  0.0564343988665726  0.7786203762767192  0.4978646581913483
  0.1662575291287667  0.6670143557622993  0.4986251609438347
  0.2225206995401297  0.7787936984309518  0.4981666028958947
  0.3315298760827752  0.6671855195557219  0.5022863823841086
  0.3884050810582969  0.7782184716817098  0.5002623510626424
  0.4959287082380748  0.6626296555044726  0.5086992096489382
  0.5534900757928859  0.7735336984759554  0.5030760267744367
  0.6663118719195574  0.6614265701350630  0.5091848338102702
  0.7197847016520200  0.7729048691614864  0.5033428010483387
  0.8357039130284166  0.6669156644053665  0.5015728282159229
  0.8898867488556266  0.7779592929753246  0.4998630925958603
  0.0010427231533480  0.8341277761015101  0.4980922383406765
  0.0565340865281657  0.9455270488473556  0.4975171072725749
  0.1675376520668566  0.8345998905124912  0.4976201738135771
  0.2232917631786356  0.9460731201765169  0.4975261179634168
  0.3335402403108704  0.8344075844538436  0.4984504657474553
  0.3895794980183886  0.9458415325991115  0.4977148411671425
  0.4992411389446651  0.8315395088435822  0.5001900338263705
  0.5551370834786193  0.9434020466285860  0.4985216317209511
  0.6652044743616687  0.8301542892815581  0.5022334027819118
  0.7207741667617276  0.9416261164260827  0.4994015146540680
  0.8321202058279229  0.8311088922476583  0.5001134713740674
  0.8880473373597202  0.9429500473981367  0.4984459057391884
  0.5264625497296866  0.5557554140906280  0.5551602475595623
 
  0.00000000E+00  0.00000000E+00  0.00000000E+00
  0.00000000E+00  0.00000000E+00  0.00000000E+00
  0.00000000E+00  0.00000000E+00  0.00000000E+00
  0.00000000E+00  0.00000000E+00  0.00000000E+00
  0.00000000E+00  0.00000000E+00  0.00000000E+00
  0.00000000E+00  0.00000000E+00  0.00000000E+00
  0.00000000E+00  0.00000000E+00  0.00000000E+00
  0.00000000E+00  0.00000000E+00  0.00000000E+00
  0.00000000E+00  0.00000000E+00  0.00000000E+00
  0.00000000E+00  0.00000000E+00  0.00000000E+00
  0.00000000E+00  0.00000000E+00  0.00000000E+00
  0.00000000E+00  0.00000000E+00  0.00000000E+00
  0.00000000E+00  0.00000000E+00  0.00000000E+00
  0.00000000E+00  0.00000000E+00  0.00000000E+00
  0.00000000E+00  0.00000000E+00  0.00000000E+00
  0.00000000E+00  0.00000000E+00  0.00000000E+00
  0.00000000E+00  0.00000000E+00  0.00000000E+00
  0.00000000E+00  0.00000000E+00  0.00000000E+00
  0.00000000E+00  0.00000000E+00  0.00000000E+00
  0.00000000E+00  0.00000000E+00  0.00000000E+00
  0.00000000E+00  0.00000000E+00  0.00000000E+00
  0.00000000E+00  0.00000000E+00  0.00000000E+00
  0.00000000E+00  0.00000000E+00  0.00000000E+00
  0.00000000E+00  0.00000000E+00  0.00000000E+00
  0.00000000E+00  0.00000000E+00  0.00000000E+00
  0.00000000E+00  0.00000000E+00  0.00000000E+00
  0.00000000E+00  0.00000000E+00  0.00000000E+00
  0.00000000E+00  0.00000000E+00  0.00000000E+00
  0.00000000E+00  0.00000000E+00  0.00000000E+00
  0.00000000E+00  0.00000000E+00  0.00000000E+00
  0.00000000E+00  0.00000000E+00  0.00000000E+00
  0.00000000E+00  0.00000000E+00  0.00000000E+00
  0.00000000E+00  0.00000000E+00  0.00000000E+00
  0.00000000E+00  0.00000000E+00  0.00000000E+00
  0.00000000E+00  0.00000000E+00  0.00000000E+00
  0.00000000E+00  0.00000000E+00  0.00000000E+00
  0.00000000E+00  0.00000000E+00  0.00000000E+00
  0.00000000E+00  0.00000000E+00  0.00000000E+00
  0.00000000E+00  0.00000000E+00  0.00000000E+00
  0.00000000E+00  0.00000000E+00  0.00000000E+00
  0.00000000E+00  0.00000000E+00  0.00000000E+00
  0.00000000E+00  0.00000000E+00  0.00000000E+00
  0.00000000E+00  0.00000000E+00  0.00000000E+00
  0.00000000E+00  0.00000000E+00  0.00000000E+00
  0.00000000E+00  0.00000000E+00  0.00000000E+00
  0.00000000E+00  0.00000000E+00  0.00000000E+00
  0.00000000E+00  0.00000000E+00  0.00000000E+00
  0.00000000E+00  0.00000000E+00  0.00000000E+00
  0.00000000E+00  0.00000000E+00  0.00000000E+00
  0.00000000E+00  0.00000000E+00  0.00000000E+00
  0.00000000E+00  0.00000000E+00  0.00000000E+00
  0.00000000E+00  0.00000000E+00  0.00000000E+00
  0.00000000E+00  0.00000000E+00  0.00000000E+00
  0.00000000E+00  0.00000000E+00  0.00000000E+00
  0.00000000E+00  0.00000000E+00  0.00000000E+00
  0.00000000E+00  0.00000000E+00  0.00000000E+00
  0.00000000E+00  0.00000000E+00  0.00000000E+00
  0.00000000E+00  0.00000000E+00  0.00000000E+00
  0.00000000E+00  0.00000000E+00  0.00000000E+00
  0.00000000E+00  0.00000000E+00  0.00000000E+00
  0.00000000E+00  0.00000000E+00  0.00000000E+00
  0.00000000E+00  0.00000000E+00  0.00000000E+00
  0.00000000E+00  0.00000000E+00  0.00000000E+00
  0.00000000E+00  0.00000000E+00  0.00000000E+00
  0.00000000E+00  0.00000000E+00  0.00000000E+00
  0.00000000E+00  0.00000000E+00  0.00000000E+00
  0.00000000E+00  0.00000000E+00  0.00000000E+00
  0.00000000E+00  0.00000000E+00  0.00000000E+00
  0.00000000E+00  0.00000000E+00  0.00000000E+00
  0.00000000E+00  0.00000000E+00  0.00000000E+00
  0.00000000E+00  0.00000000E+00  0.00000000E+00
