POSCAR-clean                            
   1.0000000000000000     
    14.8408194831000007    0.0016245415000000    0.0000000000000000
    -7.4204097415000003   12.7517140135999991    0.0000000000000000
     0.0000000000000000    0.0000000000000000   15.0000000000000000
   C    N    C    Cr   C    O 
    21     1    48     1     1     1
Direct
 -0.0011172676402629  0.9999131611027796  0.4919449649011084
  0.0548716505358252  0.1114673307149482  0.4918847916956358
  0.1672140257192530  0.0021300736085128  0.4912197982721869
  0.2230587159869962  0.1135610828240981  0.4920588964379938
  0.3338686616360181  0.0023433329834697  0.4913671039957276
  0.3896877562254630  0.1138262792844593  0.4946198631533130
  0.5002279162467366  0.0016366007051158  0.4900873304106260
  0.5559589478842500  0.1134702104015887  0.4930111758533731
  0.6654896373837274  0.9996589747670697  0.4892019232631813
  0.7215123330343234  0.1112360053880896  0.4908837018284294
  0.8319450595943366  0.9987718370354062  0.4920989496174940
  0.8876725919897827  0.1102138623171734  0.4920289313727358
  0.9989227427342017  0.1663568190001191  0.4923988968144726
  0.0541768200684546  0.2775790933284848  0.4931060023632028
  0.1664016830307032  0.1679338434660064  0.4916078692527455
  0.2221067593121852  0.2791236969448165  0.4908452225986669
  0.3346972473607389  0.1701220725000034  0.4951575861259634
  0.3910457339893497  0.2814084575556495  0.4978766151079786
  0.5003279313018085  0.1691976569717981  0.4959898590339847
  0.5571635889882856  0.2806973447560965  0.5007232536107824
  0.6667183217599278  0.1675449995373191  0.4929593464755704
  0.7220746930111429  0.2776066518048169  0.4959489340419355
  0.8325731773033841  0.1658102388348541  0.4920980967623276
  0.8872432410994444  0.2769881513210204  0.4932253024499270
  0.9986548462256762  0.3332572708671734  0.4935871158150632
  0.0545383301457517  0.4445218985418045  0.4932419522112935
  0.1654138689770504  0.3335882701860418  0.4925236747389143
  0.2202713405582502  0.4448815902880799  0.4928702978104620
  0.3342161553833458  0.3358638085450420  0.4913366652164161
  0.3872409619982969  0.4458764599141672  0.4892301936950312
  0.5031083910996924  0.3396372074381933  0.5048896938079193
  0.5598768855745261  0.4510532845508861  0.5149598266770669
  0.6678728836925663  0.3331205800676972  0.5008711349226175
  0.7243971582164884  0.4441940688633242  0.5029588077641163
  0.8320803528603116  0.3325116274256150  0.4942040425375354
  0.8881310917787744  0.4436560910525033  0.4941103930928369
  0.9992995791604106  0.4996497721993982  0.4925491817898760
  0.0551245597294365  0.6113213312816300  0.4916916687472243
  0.1652410371145298  0.5005284930047477  0.4932300153597613
  0.2208599346621062  0.6119236578400739  0.4918636157843860
  0.3307399543600489  0.5001405488819036  0.4875896350520698
  0.3870294022834764  0.6129901564711540  0.4853726800176028
  0.6700672827570537  0.4996617012166279  0.5096795633154291
  0.7256002256062276  0.6113835512514911  0.5085352820723337
  0.8349246118405640  0.5006028138347159  0.4975033356441557
  0.8901826646754954  0.6113992583734116  0.4966878813467926
  0.0006633253328323  0.6674323223763333  0.4925913891555468
  0.0558146990790127  0.7788309467765558  0.4917882404951339
  0.1659565359194957  0.6675272337272364  0.4910863740141811
  0.2220529965072267  0.7792099999884649  0.4900552336537770
  0.3314794867438121  0.6679667289962924  0.4896253524194162
  0.3881181550549457  0.7792169278956078  0.4876856824232232
  0.4973499686462416  0.6664565911147527  0.4820430499121360
  0.5539177611781020  0.7764445392976465  0.4854560574296148
  0.6645560134454379  0.6607379165311142  0.5127316395270624
  0.7185842052992620  0.7726133983500572  0.5009136086977124
  0.8351555469402033  0.6671541794342907  0.5009145628939199
  0.8892970126593928  0.7783110338810845  0.4974864875947683
  0.0002288072989911  0.8344330275631278  0.4932399935666996
  0.0557572051230133  0.9458605017033118  0.4917039916411214
  0.1668595030503333  0.8349140624163675  0.4903050623581289
  0.2228156277782307  0.9465667511842265  0.4906995649728310
  0.3330862593916878  0.8351811753168298  0.4889733302776920
  0.3890788086205212  0.9465811255728129  0.4897487073839676
  0.4991115240929552  0.8336313525823348  0.4858122434380469
  0.5547519622553378  0.9450719028600864  0.4880570626352475
  0.6653480523985956  0.8312175758448896  0.4928113929521549
  0.7206107097887022  0.9426503828364874  0.4911759135128423
  0.8310242244005371  0.8310805698589424  0.4969796606077383
  0.8871010989631068  0.9430304220495959  0.4929336884604479
  0.5125378980599506  0.5571057473030351  0.5400889934935409
  0.5199817354520093  0.5162288180124962  0.6595922498119695
  0.5257340797998775  0.4958463414306504  0.7336693938395220

  0.00000000E+00  0.00000000E+00  0.00000000E+00
  0.00000000E+00  0.00000000E+00  0.00000000E+00
  0.00000000E+00  0.00000000E+00  0.00000000E+00
  0.00000000E+00  0.00000000E+00  0.00000000E+00
  0.00000000E+00  0.00000000E+00  0.00000000E+00
  0.00000000E+00  0.00000000E+00  0.00000000E+00
  0.00000000E+00  0.00000000E+00  0.00000000E+00
  0.00000000E+00  0.00000000E+00  0.00000000E+00
  0.00000000E+00  0.00000000E+00  0.00000000E+00
  0.00000000E+00  0.00000000E+00  0.00000000E+00
  0.00000000E+00  0.00000000E+00  0.00000000E+00
  0.00000000E+00  0.00000000E+00  0.00000000E+00
  0.00000000E+00  0.00000000E+00  0.00000000E+00
  0.00000000E+00  0.00000000E+00  0.00000000E+00
  0.00000000E+00  0.00000000E+00  0.00000000E+00
  0.00000000E+00  0.00000000E+00  0.00000000E+00
  0.00000000E+00  0.00000000E+00  0.00000000E+00
  0.00000000E+00  0.00000000E+00  0.00000000E+00
  0.00000000E+00  0.00000000E+00  0.00000000E+00
  0.00000000E+00  0.00000000E+00  0.00000000E+00
  0.00000000E+00  0.00000000E+00  0.00000000E+00
  0.00000000E+00  0.00000000E+00  0.00000000E+00
  0.00000000E+00  0.00000000E+00  0.00000000E+00
  0.00000000E+00  0.00000000E+00  0.00000000E+00
  0.00000000E+00  0.00000000E+00  0.00000000E+00
  0.00000000E+00  0.00000000E+00  0.00000000E+00
  0.00000000E+00  0.00000000E+00  0.00000000E+00
  0.00000000E+00  0.00000000E+00  0.00000000E+00
  0.00000000E+00  0.00000000E+00  0.00000000E+00
  0.00000000E+00  0.00000000E+00  0.00000000E+00
  0.00000000E+00  0.00000000E+00  0.00000000E+00
  0.00000000E+00  0.00000000E+00  0.00000000E+00
  0.00000000E+00  0.00000000E+00  0.00000000E+00
  0.00000000E+00  0.00000000E+00  0.00000000E+00
  0.00000000E+00  0.00000000E+00  0.00000000E+00
  0.00000000E+00  0.00000000E+00  0.00000000E+00
  0.00000000E+00  0.00000000E+00  0.00000000E+00
  0.00000000E+00  0.00000000E+00  0.00000000E+00
  0.00000000E+00  0.00000000E+00  0.00000000E+00
  0.00000000E+00  0.00000000E+00  0.00000000E+00
  0.00000000E+00  0.00000000E+00  0.00000000E+00
  0.00000000E+00  0.00000000E+00  0.00000000E+00
  0.00000000E+00  0.00000000E+00  0.00000000E+00
  0.00000000E+00  0.00000000E+00  0.00000000E+00
  0.00000000E+00  0.00000000E+00  0.00000000E+00
  0.00000000E+00  0.00000000E+00  0.00000000E+00
  0.00000000E+00  0.00000000E+00  0.00000000E+00
  0.00000000E+00  0.00000000E+00  0.00000000E+00
  0.00000000E+00  0.00000000E+00  0.00000000E+00
  0.00000000E+00  0.00000000E+00  0.00000000E+00
  0.00000000E+00  0.00000000E+00  0.00000000E+00
  0.00000000E+00  0.00000000E+00  0.00000000E+00
  0.00000000E+00  0.00000000E+00  0.00000000E+00
  0.00000000E+00  0.00000000E+00  0.00000000E+00
  0.00000000E+00  0.00000000E+00  0.00000000E+00
  0.00000000E+00  0.00000000E+00  0.00000000E+00
  0.00000000E+00  0.00000000E+00  0.00000000E+00
  0.00000000E+00  0.00000000E+00  0.00000000E+00
  0.00000000E+00  0.00000000E+00  0.00000000E+00
  0.00000000E+00  0.00000000E+00  0.00000000E+00
  0.00000000E+00  0.00000000E+00  0.00000000E+00
  0.00000000E+00  0.00000000E+00  0.00000000E+00
  0.00000000E+00  0.00000000E+00  0.00000000E+00
  0.00000000E+00  0.00000000E+00  0.00000000E+00
  0.00000000E+00  0.00000000E+00  0.00000000E+00
  0.00000000E+00  0.00000000E+00  0.00000000E+00
  0.00000000E+00  0.00000000E+00  0.00000000E+00
  0.00000000E+00  0.00000000E+00  0.00000000E+00
  0.00000000E+00  0.00000000E+00  0.00000000E+00
  0.00000000E+00  0.00000000E+00  0.00000000E+00
  0.00000000E+00  0.00000000E+00  0.00000000E+00
  0.00000000E+00  0.00000000E+00  0.00000000E+00
  0.00000000E+00  0.00000000E+00  0.00000000E+00
