POSCAR-clean
1.0
14.8783077273 0.0001054242 0.0
-7.4391538636 12.7621952043 0.0
0.0 0.0 15.0
C N C Cr
56 1 13 1
Cartesian
-7.4364589286 +12.7613249029 +7.4650210124
+0.0009867711 +1.4203573656 +7.4662160948
+2.4843745968 +0.0268846926 +7.4630976911
+2.4822703809 +1.4477667586 +7.4737672681
+4.9587887009 +0.0265415810 +7.4665850390
+4.9610125234 +1.4474720592 +7.4762757459
+0.0011731978 +12.7608496645 +7.4663472684
+7.4421409274 +1.4198867795 +7.4651385576
+2.4823502829 +12.7334604459 +7.4737720333
+9.9236335421 +1.3921612454 +7.4630735560
+4.9609002495 +12.7337816013 +7.4761504466
+12.3978834477 +1.3925366504 +7.4665201977
+13.6335520163 +2.1121686864 +7.4676607978
-1.2501902716 +3.5309428682 +7.4780618647
+1.2395828688 +2.1449080716 +7.4751520793
+1.2357123571 +3.5680071370 +7.4996374587
+3.7216763193 +2.1733917287 +7.4911816802
+3.7215757627 +3.5915543291 +7.5382455242
+6.2037100708 +2.1444793971 +7.4763000345
+6.2072435594 +3.5676124085 +7.4998226164
+8.6878010439 +2.1115802960 +7.4628021478
+8.6927453185 +3.5305235625 +7.4704361885
+11.1605757467 +2.1040531865 +7.4647454119
+11.1604002117 +3.5251384273 +7.4670084304
+12.3929827338 +4.2400283349 +7.4757670752
-2.4919598561 +5.6641727175 +7.4827085191
-0.0167312097 +4.2483536687 +7.5001821831
-0.0435224809 +5.6641750517 +7.5247835906
+2.4739939236 +4.3102533421 +7.5508547028
+2.4223121712 +5.7209993688 +7.6438005653
+4.9692729898 +4.3099334208 +7.5540158152
+5.0212358942 +5.7205597314 +7.6497585762
+7.4593025897 +4.2480235770 +7.4945624208
+7.4858150504 +5.6640385169 +7.5171441922
+9.9275662703 +4.2398416022 +7.4687276661
+9.9338781634 +5.6640423558 +7.4737856142
-3.7183422313 +6.3798252488 +7.4752572666
-3.7183505057 +7.8016305982 +7.4751847543
-1.2706089370 +6.3792770686 +7.5048352836
-1.2705879883 +7.8020974668 +7.5047249205
+1.1777765802 +6.3713859138 +7.5771906205
+1.1777619899 +7.8098231808 +7.5772107899
+6.2651693192 +6.3713879657 +7.5775829573
+6.2651870556 +7.8099065364 +7.5775836056
+8.7125416729 +6.3794022751 +7.4922679153
+8.7125318904 +7.8020650696 +7.4922632405
-4.9445371441 +8.5173937866 +7.4737405889
-4.9508560370 +9.9415724646 +7.4686352858
-2.4919219940 +8.5172582276 +7.4825108376
-2.4852812108 +9.9414620772 +7.4755590586
-0.0434433625 +8.5170874138 +7.5246906247
-0.0165941157 +9.9328889174 +7.5000807960
+2.4222311939 +8.4602867984 +7.6438076279
+2.4740552360 +9.8709418053 +7.5508241337
+5.0212710024 +8.4608113545 +7.6497432338
+4.9692631461 +9.8713910473 +7.5539217926
+7.4857813370 +8.5173323726 +7.5171317572
+7.4591698882 +9.9332989668 +7.4945308010
-6.1857774610 +10.6507575138 +7.4704111111
-6.1907216053 +12.0697035031 +7.4627889416
-3.7179703714 +10.6562398129 +7.4668630166
-3.7177463526 +12.0772522059 +7.4647476606
-1.2500661300 +10.6503706289 +7.4779704247
-1.2446145909 +12.0692243132 +7.4677177472
+1.2358414128 +10.6131773192 +7.4996135678
+1.2397406736 +12.0362693898 +7.4752174045
+3.7215641309 +10.5896973572 +7.5381456167
+3.7216747693 +12.0078354871 +7.4911031683
+6.2071430068 +10.6137195476 +7.4997046648
+6.2035024217 +12.0367826314 +7.4761341000
+3.7207707098 +7.0908982860 +8.3110943033