POSCAR-clean
1.0
14.857851351 -0.0013713678 0.0
-7.4289256755 12.756850017 0.0
0.0 0.0 15.0
C N C Cr C O
59 1 10 1 1 1
Cartesian
-7.415515602 12.7486754033 7.3501179046
0.0113317537 1.4120797226 7.350905548
2.4685916909 0.01880686 7.3489938692
2.4697092821 1.4365488603 7.3592908163
4.9425863551 0.0261345066 7.3508821059
4.9504753763 1.4448245763 7.3607520356
-0.0005313822 12.7538563381 7.35101638
7.4299124144 1.419420016 7.3499299904
2.482158735 12.7274080421 7.3588895322
9.9110054091 1.3915260436 7.3480813922
4.9631723503 12.7287471183 7.3603577607
12.3843799247 1.3906468206 7.3509962153
13.6182142545 2.1015855344 7.3521872723
-1.2447549029 3.5260314558 7.3622898552
1.2383785967 2.1470198665 7.3607268965
1.2370936601 3.5662141646 7.3858574359
3.7133296542 2.1630526413 7.3764097254
3.7139101449 3.5847909655 7.422884707
6.1923590776 2.143612131 7.3614135903
6.194832732 3.5672101514 7.385571398
8.675244286 2.1102563441 7.3478432174
8.6798425084 3.5295225522 7.3554292179
11.1463580136 2.1020127948 7.3492671603
11.1461952104 3.5230717055 7.3513990359
12.3778063607 4.2347977938 7.3597395712
-2.4873828076 5.6624038912 7.366645343
-0.0162121707 4.2452284208 7.3853830245
-0.0404646663 5.6614341103 7.4111162924
2.4738282092 4.3087501359 7.4357254652
2.428279578 5.7209983305 7.5265439187
4.9581953287 4.3080266526 7.4370732562
5.0060965146 5.7227127908 7.5296373209
7.4469878796 4.2463822424 7.3800551965
7.4719988337 5.6630173387 7.4043924793
9.9132459486 4.2372772702 7.3536791497
9.9183504891 5.6622772339 7.3586991534
-3.7145102525 6.379244022 7.3589134833
-3.7160191494 7.8031981993 7.3589893012
-1.2685141426 6.3758756793 7.3903141663
-1.2689436074 7.7986684994 7.3899599462
1.1796824794 6.3684543488 7.4626135547
1.1791064053 7.804049792 7.4626624662
6.253557132 6.3709984047 7.463305853
6.2561289746 7.8097411394 7.4627963732
8.6988412339 6.3766653579 7.3788095717
8.6991484351 7.8009527125 7.3784214895
-4.9449759301 8.5202852852 7.3586284205
-4.9487276517 9.949644726 7.3534891959
-2.4890902346 8.5124870897 7.3667051999
-2.4832910326 9.9379721441 7.359705806
-0.0402980626 8.5118141477 7.4104978
-0.0150096551 9.928630768 7.3852775308
2.4283882871 8.4508266272 7.5271089349
2.475320086 9.8641803637 7.4355811182
5.0092975944 8.4508522303 7.5324561226
4.9628043371 9.8657165333 7.4370732957
7.4778541804 8.5181935794 7.402880396
7.4501189481 9.9392416362 7.3801114146
-6.1784055997 10.6580155994 7.3564166817
-6.1829868121 12.063268214 7.3486477725
-3.71087432 10.649028678 7.3511351486
-3.7247056825 12.0676007193 7.3492414429
-1.2480799746 10.6459984274 7.362448638
-1.2480942924 12.0634437302 7.3523185842
1.2372024139 10.6065681086 7.3860140891
1.2394261648 12.0292248251 7.3608460003
3.7181120004 10.5851921775 7.422558905
3.7226737699 12.0027553246 7.3760214316
6.1939522209 10.6038909014 7.3854071882
6.2072614563 12.0270513947 7.3608365536
3.71587789 7.0865591959 8.2087619016
3.71587789 7.0865591959 10.6887619016
3.3948639434 6.3607155032 11.5340990853