POSCAR-c3n4                             
  0.97999999999999998     
    13.8434242346000005   -0.1907404740000000    0.0000000000000000
    -6.9217121174000003   11.6951909939000007    0.0000000000000000
     0.0000000000000000    0.0000000000000000   15.0000000000000000
   C    N    Ge   C    O 
    24    32     1     1     1
Direct
  0.1045849473610403  0.2123531508081271  0.4312288371498525
  0.2889220034640800  0.4018803150065011  0.4431408158287695
  0.1025315614434561  0.3915984042783336  0.4358867439553364
  0.4474180459023742  0.0647830789613124  0.5245600951909850
  0.4581660711394377  0.4092291084246895  0.4223058385372482
  0.1126276782639621  0.0519191212990577  0.4613468575901720
  0.0900757639031085  0.7084559468046621  0.5046482331260549
  0.2828377853929567  0.8869593333057182  0.5231534748282272
  0.1111585586505441  0.8970937081526174  0.5205255330735525
  0.4477228994470792  0.5480290387975799  0.5223787553567050
  0.4462134111443063  0.8831377658472590  0.5088365847749685
  0.0778294575658478  0.5349084845898489  0.4980575502078821
  0.6184212564863785  0.2237668754519717  0.4859419307681208
  0.7772734193807125  0.3884812092223200  0.4011646335306409
  0.6132036644411016  0.3959784938353508  0.4488238963319162
  0.9377297348326081  0.0519130902775018  0.4758181471213021
  0.9391650292344309  0.3863966138722503  0.3972019157505784
  0.6260837349307309  0.0673112397580411  0.5330249608696604
  0.6145950584260191  0.7086740535120555  0.5638812760152803
  0.7921555746218800  0.9003060903549454  0.5512531530003741
  0.6105097855124555  0.8914412088413926  0.5490241971477872
  0.9334537677162231  0.5631633287566586  0.4306920063867636
  0.9612680835467273  0.9116889837425930  0.5637200983491937
  0.6234184532027669  0.5519558878569626  0.5166087863903712
  0.1670229136879584  0.3361062142357483  0.4312707658029069
  0.1644044896375974  0.1585266074984872  0.4256820352208450
  0.3352862892728652  0.0010331679042537  0.5445244024748774
  0.5189630435127128  0.3613177367299087  0.3989973403929028
  0.3495145788892273  0.3676269580663458  0.3968372384359427
  0.5064249792816256  0.1790395029128575  0.5091181685426989
  0.1571054347390728  0.9836558495660199  0.4602807374495015
  0.0052755630841332  0.0066936300415108  0.5039839979867224
  0.1625450654923171  0.8279494404167735  0.5233143268809002
  0.1237451077372924  0.6373490278839355  0.5400886140375718
  0.3326712061852177  0.4917188522864393  0.5066407578480181
  0.5045009381254886  0.8278823812685516  0.5122700554175879
  0.3316434324632169  0.8246403376844924  0.4996250526591410
  0.4972862365013100  0.6441202053930510  0.5728197033304738
  0.1345251646990562  0.4767603506275577  0.5011862646585357
  0.9816413293909392  0.4923915775106877  0.4476667681084905
  0.6676351160124270  0.3288247951731122  0.4373635460170888
  0.6846387213864489  0.1806243134178231  0.5116604563017901
  0.8240274616044303  0.9822039046971511  0.4872339852272773
  0.0133977907844169  0.3512761691558595  0.3807880691702294
  0.8287086325630924  0.3289612913766717  0.3773587685580679
  0.9893614625532337  0.1586975012517655  0.4409659974183882
  0.6705993877145104  0.0065715270127953  0.5674256053297242
  0.5060355504155325  0.0035953163182683  0.5163531159736579
  0.6697022071716674  0.8315503895414054  0.5661964807437485
  0.6782094233230254  0.6611517678892866  0.5487429247422497
  0.8285458397183447  0.5081220146718692  0.3980044335749966
  0.0237264584664700  0.8624618731827454  0.5790551601089504
  0.8562905499069302  0.8704632601566828  0.5994658428932382
  0.9997697574749296  0.6781639209354751  0.4509586228748006
  0.6680567795693193  0.4850984068728295  0.5080268273895072
  0.5094353144300712  0.5051292410288752  0.4842275709965804
  0.2874711123136890  0.6013112557800682  0.5722971943152260
  0.2935604157331042  0.5984542920008877  0.7763771628035201
  0.2210277817411068  0.5144248993973264  0.8099676849054660

  0.00000000E+00  0.00000000E+00  0.00000000E+00
  0.00000000E+00  0.00000000E+00  0.00000000E+00
  0.00000000E+00  0.00000000E+00  0.00000000E+00
  0.00000000E+00  0.00000000E+00  0.00000000E+00
  0.00000000E+00  0.00000000E+00  0.00000000E+00
  0.00000000E+00  0.00000000E+00  0.00000000E+00
  0.00000000E+00  0.00000000E+00  0.00000000E+00
  0.00000000E+00  0.00000000E+00  0.00000000E+00
  0.00000000E+00  0.00000000E+00  0.00000000E+00
  0.00000000E+00  0.00000000E+00  0.00000000E+00
  0.00000000E+00  0.00000000E+00  0.00000000E+00
  0.00000000E+00  0.00000000E+00  0.00000000E+00
  0.00000000E+00  0.00000000E+00  0.00000000E+00
  0.00000000E+00  0.00000000E+00  0.00000000E+00
  0.00000000E+00  0.00000000E+00  0.00000000E+00
  0.00000000E+00  0.00000000E+00  0.00000000E+00
  0.00000000E+00  0.00000000E+00  0.00000000E+00
  0.00000000E+00  0.00000000E+00  0.00000000E+00
  0.00000000E+00  0.00000000E+00  0.00000000E+00
  0.00000000E+00  0.00000000E+00  0.00000000E+00
  0.00000000E+00  0.00000000E+00  0.00000000E+00
  0.00000000E+00  0.00000000E+00  0.00000000E+00
  0.00000000E+00  0.00000000E+00  0.00000000E+00
  0.00000000E+00  0.00000000E+00  0.00000000E+00
  0.00000000E+00  0.00000000E+00  0.00000000E+00
  0.00000000E+00  0.00000000E+00  0.00000000E+00
  0.00000000E+00  0.00000000E+00  0.00000000E+00
  0.00000000E+00  0.00000000E+00  0.00000000E+00
  0.00000000E+00  0.00000000E+00  0.00000000E+00
  0.00000000E+00  0.00000000E+00  0.00000000E+00
  0.00000000E+00  0.00000000E+00  0.00000000E+00
  0.00000000E+00  0.00000000E+00  0.00000000E+00
  0.00000000E+00  0.00000000E+00  0.00000000E+00
  0.00000000E+00  0.00000000E+00  0.00000000E+00
  0.00000000E+00  0.00000000E+00  0.00000000E+00
  0.00000000E+00  0.00000000E+00  0.00000000E+00
  0.00000000E+00  0.00000000E+00  0.00000000E+00
  0.00000000E+00  0.00000000E+00  0.00000000E+00
  0.00000000E+00  0.00000000E+00  0.00000000E+00
  0.00000000E+00  0.00000000E+00  0.00000000E+00
  0.00000000E+00  0.00000000E+00  0.00000000E+00
  0.00000000E+00  0.00000000E+00  0.00000000E+00
  0.00000000E+00  0.00000000E+00  0.00000000E+00
  0.00000000E+00  0.00000000E+00  0.00000000E+00
  0.00000000E+00  0.00000000E+00  0.00000000E+00
  0.00000000E+00  0.00000000E+00  0.00000000E+00
  0.00000000E+00  0.00000000E+00  0.00000000E+00
  0.00000000E+00  0.00000000E+00  0.00000000E+00
  0.00000000E+00  0.00000000E+00  0.00000000E+00
  0.00000000E+00  0.00000000E+00  0.00000000E+00
  0.00000000E+00  0.00000000E+00  0.00000000E+00
  0.00000000E+00  0.00000000E+00  0.00000000E+00
  0.00000000E+00  0.00000000E+00  0.00000000E+00
  0.00000000E+00  0.00000000E+00  0.00000000E+00
  0.00000000E+00  0.00000000E+00  0.00000000E+00
  0.00000000E+00  0.00000000E+00  0.00000000E+00
  0.00000000E+00  0.00000000E+00  0.00000000E+00
  0.00000000E+00  0.00000000E+00  0.00000000E+00
  0.00000000E+00  0.00000000E+00  0.00000000E+00
