POSCAR-clean
1.0
14.8584948118 0.0076534733 0.0
-7.4292474058 12.7385461943 0.0
0.0 0.0 15.0
C N C Cr C O
40 1 29 1 1 1
Cartesian
0.0018971894 0.0084525197 7.3516462339
0.0015222936 1.4301381782 7.3498832629
2.4799827541 0.0334477738 7.3478805133
2.4789073006 1.4544234458 7.3609643891
4.9518981715 0.0270205872 7.3504001119
4.9502131117 1.4499615865 7.3608205315
0.0043356134 12.7299266546 7.3512162696
7.4318707899 1.4141266987 7.3518061394
2.4776651307 12.7077947258 7.3609485253
9.9070675004 1.3919565861 7.3472981358
4.9506522555 12.7171396018 7.3601627476
12.3796022013 1.4009471944 7.3508292694
13.615328867 2.1252630227 7.3526173048
-1.2472617046 3.5383828842 7.3602683538
1.2396089264 2.1573555505 7.3586628058
1.240052944 3.5799147558 7.3885743065
3.7116961202 2.1806051823 7.3786589952
3.7087900261 3.6038627069 7.4271676376
6.1944197348 2.1395628581 7.3627789295
6.1951037479 3.5616197093 7.3804901792
8.674042844 2.1097182999 7.3476345138
8.6768314001 3.5283941482 7.3563586595
11.1420033982 2.1066682355 7.347689931
11.141184234 3.5260108341 7.3499080839
12.3741697409 4.2417787944 7.3579835112
-2.4849531092 5.651450178 7.3614273762
-0.0108077454 4.2571092319 7.3788010922
-0.0331558607 5.6694948238 7.3905527933
2.4644373596 4.3417608024 7.4622156285
2.4212387349 5.7634692913 7.5923833601
4.9573410308 4.2995615852 7.4191163691
4.9973301761 5.7073749 7.4893893302
7.4452844089 4.2445890355 7.3823301443
7.4680765692 5.6601353245 7.4143970237
9.9108794709 4.2376227189 7.3531305814
9.9178206473 5.6600919573 7.3609317899
-3.7123047768 6.3673318496 7.3587330211
-3.7154929608 7.7876027272 7.3590437024
-1.261587286 6.372106249 7.3724008054
-1.2713391315 7.7892241118 7.3749339264
1.1606151174 6.3654772723 7.4639192421
1.1786917763 7.7707536479 7.4590749439
6.2457529006 6.3668212149 7.4544982145
6.2456173156 7.8001750351 7.4582616407
8.6962840245 6.3750327852 7.3883818088
8.6954582609 7.7955295914 7.3892491838
-4.9410197037 8.5025739196 7.3601995184
-4.945574971 9.9252992753 7.3527572013
-2.4894574766 8.5031468008 7.3642113193
-2.4815378725 9.9237144428 7.3585852778
-0.0362580813 8.4826166612 7.3905640803
-0.0093943336 9.9011638128 7.3804963067
2.436758414 8.3849510884 7.563504628
2.4743889698 9.8197347891 7.457834808
4.9989511099 8.4610993611 7.4930191261
4.9599688422 9.8674223183 7.4197839218
7.4682457323 8.5096286057 7.4195390492
7.447029145 9.9241412752 7.3846959727
-6.179130276 10.6341804239 7.3566987184
-6.1837005529 12.053116019 7.3479340496
-3.7136248295 10.638478016 7.3491519495
-3.7137933934 12.0585128564 7.3477164968
-1.2427194075 10.6217135818 7.3613286639
-1.2421080913 12.0423427715 7.3525178873
1.2440398354 10.573642607 7.3920283234
1.2415267711 12.0022301764 7.361723327
3.7093296405 10.5646759246 7.4237789326
3.7122811854 11.9865822804 7.3770229379
6.1969900956 10.6053393062 7.3810784839
6.1948095356 12.0278716503 7.3623575761
3.8172088415 7.0794848216 8.2134376477
3.8172088415 7.0794848216 10.6934376477
3.4961948949 6.3536411289 11.5387748314