POSCAR-clean
1.0
14.857880698200962 -0.0001736020664687 0.0
-7.428940349050551 12.755999190474265 0.0
0.0 0.0 15.0
C N C Cr
9 1 60 1
Cartesian
0.0008758742 3.81706e-05 0.0015420087
-0.0049070339 1.4211276848 0.0029273619
2.4807903313 0.0266453165 0.0001647569
2.47905035 1.4471680134 0.0107487165
4.9528900275 0.0277173795 0.0031933627
4.9595865688 1.4468241613 0.0127375229
-0.0004912048 12.7528784647 0.0026416661
7.4436135905 1.4162820998 0.0017563404
2.4785432606 12.7412004805 0.0117499016
9.910030754 1.3933841612 0.0006121599
4.9544397545 12.7263605636 0.0125535958
12.3669063505 1.3892574574 0.0029352714
13.6049921378 2.1124126237 0.0044024769
-1.2510157585 3.5283320305 0.0144880638
1.2357333653 2.1445135185 0.0124609817
1.2351180042 3.5676711648 0.0380303557
3.7191078968 2.1718788765 0.0280816517
3.7171893296 3.5900587424 0.0752801739
6.2044287731 2.1448515973 0.0129453397
6.1998935085 3.5662820797 0.0378509958
8.688125871 2.1049432252 0.0008255807
8.6900494497 3.5202757595 0.008000205
11.1329105621 2.0961785699 0.0014742883
11.135397275 3.5159076607 0.0035590304
12.3729989981 4.2286859364 0.0120071826
-2.4893641388 5.6564853159 0.0187498651
-0.0163162282 4.245896943 0.0370408613
-0.0416590227 5.6614953737 0.0628021365
2.4729622805 4.3097722321 0.0880959801
2.4251010276 5.7222239466 0.1779440696
4.9619177978 4.3097260999 0.0911119581
5.0082067904 5.7217141257 0.1835112351
7.4511999765 4.2372647992 0.0316579695
7.4755734897 5.6567515767 0.0548168856
9.9142617019 4.2396862066 0.0057762117
9.9202310986 5.6597873028 0.0108512959
-3.7115738763 6.3746610173 0.0112045162
-3.7121605416 7.7966777155 0.0112444674
-1.2692483207 6.3731284957 0.0416449309
-1.2672771081 7.7983621193 0.041558695
1.1792190188 6.36900507 0.1160239035
1.1801994852 7.8063363186 0.1153621322
6.2560032569 6.3663095526 0.1144963818
6.253985024 7.8046155966 0.1144751244
8.6993611836 6.3744372915 0.030304883
8.6996439284 7.7961421006 0.0302687906
-4.938086971 8.5110824108 0.0108977322
-4.9441462359 9.9365901258 0.0056772875
-2.4859500537 8.511969057 0.01875746
-2.4793053699 9.9364210252 0.0118235828
-0.0390640648 8.5143589222 0.0619678202
-0.0118833937 9.9326516182 0.036865896
2.4265025159 8.4532889344 0.178864331
2.4724883377 9.868119565 0.0879697652
5.0048173614 8.4539281271 0.1847311837
4.9572562201 9.8676800982 0.0906241293
7.4716095909 8.5108557066 0.0546881267
7.4461643868 9.9276539706 0.0315349286
-6.17883816 10.6448994027 0.0074958852
-6.1836759383 12.0645376622 0.0
-3.7121454182 10.6501758501 0.003246639
-3.7124566642 12.072247254 0.0013130384
-1.2454641186 10.6434862172 0.014306944
-1.2407290232 12.0646549197 0.0043160875
1.2431668123 10.614230495 0.0381467162
1.2425738513 12.0426912078 0.0126230998
3.709533956 10.5918359266 0.0746986867
3.7130767744 12.0151532875 0.0287818932
6.1940457735 10.6055966765 0.0376397675
6.1915728013 12.0308779244 0.0128990459
3.7130222934 7.0885536608 0.8585089094