POSCAR-clean
1.0
14.8611606303 -0.0038925079 0.0
-7.4305803151 12.7577832811 0.0
0.0 0.0 15.0
C N C Cr C O
58 1 11 1 1 1
Cartesian
7.4361111467 12.7398741463 7.2538200325
0.0084176519 1.4139358879 7.2548942558
2.476833351 0.0125562099 7.2524367042
2.4736139279 1.4381031381 7.2629039018
4.9506648713 0.0220271321 7.2551236862
4.9527800561 1.4457698651 7.2648592865
0.000999081 12.7524149273 7.254956466
7.4324016608 1.4174024742 7.2538831088
2.4802723753 12.7258124675 7.2627923285
9.9126961632 1.3892627411 7.252194013
4.956890821 12.7246909882 7.2646026894
12.3858401901 1.3907286425 7.2551537778
13.6209090432 2.1037480883 7.2563438231
-1.2464166681 3.5282807699 7.266416446
1.238475053 2.1412086536 7.2644942973
1.2368033316 3.5673866601 7.2900584481
3.7144352436 2.1658694812 7.2800548624
3.7167948002 3.5869826222 7.3261185553
6.1933596045 2.1423851059 7.2652776477
6.196334579 3.5672187829 7.2898377471
8.6772047749 2.1084154247 7.2519193467
8.6818257744 3.5291705359 7.2594044411
11.1495839321 2.1006853165 7.2533394342
11.1493208812 3.522414747 7.2554867976
12.3792089103 4.2346037721 7.2639237935
-2.4892641377 5.6650610842 7.2707068734
-0.0150254915 4.245958828 7.2892842839
-0.0399870862 5.662755814 7.3152070424
2.4730859076 4.3090587719 7.3399618652
2.4279372185 5.7215384149 7.4310031175
4.9605736299 4.3092015328 7.3422712645
5.0078444754 5.7271413156 7.4353047931
7.4489971731 4.2455211471 7.2836685387
7.4729085706 5.6627254877 7.307318261
9.9161943463 4.237297759 7.2577329884
9.9232727643 5.6600916755 7.2627316703
-3.715709083 6.3825009925 7.2633434942
-3.7162371157 7.8076027075 7.2632193546
-1.2689607329 6.3773348016 7.2937430162
-1.2691435695 7.7986376664 7.2937027881
1.1784022175 6.3693617538 7.3680976687
1.1789608017 7.8040252041 7.3678776363
6.2571223516 6.3730664551 7.368045576
6.2595580674 7.8128403111 7.368243972
8.7015863748 6.3763530575 7.2816874502
8.7028399006 7.7935636143 7.2813464242
-4.9487026385 8.5239090675 7.2626004925
-4.9566051934 9.9436053409 7.2580301379
-2.4910038785 8.5141713533 7.2707595045
-2.4911685197 9.9354386506 7.2638912645
-0.0413570894 8.5116387485 7.3147893598
-0.0177322517 9.9274770662 7.288984436
2.4281698905 8.4502176192 7.4296556732
2.4766642008 9.8625943185 7.340288945
5.0109699507 8.4504303172 7.436769614
4.9713165496 9.8607562805 7.3428801747
7.4839800424 8.5186735195 7.3068728684
7.4618595381 9.9322867512 7.2839989466
-6.1792667131 10.6458138541 7.260118177
-6.1842021307 12.0515089377 7.2526818285
-3.7258703767 10.65376374 7.2555168744
-3.7109317913 12.0723212153 7.2533442725
-1.2537348988 10.6438464911 7.2663263997
-1.2438878817 12.0609306917 7.2564424865
1.2361960186 10.605128866 7.2900051648
1.2390199035 12.0282700436 7.2645431017
3.7228064557 10.5822123785 7.3265872833
3.7185024383 11.9991532522 7.2799255228
6.2111832845 10.6080311219 7.2886072683
6.1940700546 12.0302456011 7.2644749936
3.7106455414 7.0842814775 8.1139246844
3.7106455414 7.0842814775 14.0939246844
3.3896315948 6.3584377848 14.9392618681