POSCAR-clean
1.0
14.8588663937 0.0008149544 0.0
-7.4294331968 12.7557954065 0.0
0.0 0.0 15.0
C N C Cr C O
65 1 4 1 1 1
Cartesian
7.428917005 12.7550692246 7.3499126512
0.0004143308 1.4203125845 7.3509825201
2.4839933159 0.0255900336 7.3483113279
2.4801181805 1.4464017559 7.3589889568
4.9625767985 0.0269086297 7.3512791074
4.9571966499 1.4444362874 7.3610260976
0.013403894 12.7474984904 7.3520662862
7.4410264115 1.4112040024 7.350642284
2.4673878334 12.7222057038 7.3589002184
9.9006746983 1.3832785974 7.3484499716
4.9436466065 12.7297915221 7.360647937
12.3783217265 1.392569266 7.3513274289
13.6145414127 2.1118032897 7.3524839963
-1.2487140502 3.5296249609 7.3625175883
1.2388545229 2.1443954974 7.3605016431
1.236524428 3.5685465597 7.3864596664
3.7180901364 2.1708947136 7.3761847346
3.7171682781 3.5887421248 7.4226244861
6.1987292784 2.1346369958 7.3614911415
6.1995057067 3.5620219269 7.3856449596
8.67653234 2.1136112011 7.3482476081
8.6805789546 3.5277686785 7.3554641629
11.1427906033 2.0952072305 7.3495264658
11.1431535094 3.5200806153 7.3516056595
12.3761476953 4.2362890395 7.3599321113
-2.4873721468 5.6617402943 7.3666041533
-0.0148009061 4.2474537951 7.3857169413
-0.0393174288 5.6643934602 7.4123180733
2.4731770915 4.3105996683 7.4360854943
2.4281062366 5.7248118906 7.5226451292
4.9628672446 4.3064311832 7.4382061967
5.0077505507 5.71994685 7.531157494
7.4473292025 4.2447446905 7.380137131
7.4722334849 5.6614769645 7.4050419156
9.9155159409 4.2368682479 7.3537960377
9.9201924837 5.6604110212 7.3588326089
-3.7114817305 6.3758006012 7.3590156188
-3.711557538 7.7976529396 7.3592107655
-1.2660997242 6.3790804848 7.3905695147
-1.2652499389 7.8024477598 7.3899392295
1.1801833315 6.372432279 7.4643110924
1.1778525525 7.8099120704 7.4637059724
6.2535016396 6.3683096478 7.4650864764
6.2523881005 7.8057410647 7.4637636499
8.7008083084 6.3755942313 7.3789144533
8.700229958 7.7983158282 7.3788195947
-4.9378299386 8.5128975455 7.3591368204
-4.9438975355 9.9372592205 7.3538443702
-2.4849363339 8.5120735782 7.3668046588
-2.4788716348 9.9373645868 7.359742968
-0.033941622 8.5193229019 7.4096076008
-0.0122196749 9.9407758116 7.3844759175
2.4197227471 8.4653475807 7.5310558451
2.46569199 9.8794088391 7.4390510572
5.0031483946 8.4496319061 7.5279241643
4.956151268 9.8659798772 7.4375041801
7.4718108316 8.5125564391 7.4038767208
7.4469480907 9.9298645601 7.3798333741
-6.1786287131 10.6451510372 7.3555734775
-6.1831760139 12.0633622506 7.3480956853
-3.7112360636 10.6514480047 7.3513168917
-3.7068102619 12.0712288767 7.3493493944
-1.2484130308 10.6423161932 7.3620798551
-1.2291890198 12.0594929083 7.3527071301
1.2358579948 10.6212901757 7.3871383985
1.2377303409 12.0312462956 7.3609303949
3.7190376431 10.5846741805 7.4223783497
3.7035430216 12.0000372725 7.3753900401
6.194854547 10.6091537661 7.3857275491
6.1875486171 12.030997272 7.361587395
3.7143510412 7.0912420649 8.2034780081
3.7143510412 7.0912420649 10.6834780081
3.3933370946 6.3653983722 11.5288151918