POSCAR-clean
1.0
14.8578806982 -0.0001736021 0.0
-7.4289403491 12.7559991905 0.0
0.0 0.0 15.0
C N C Cr C O
9 1 60 1 1 1
Cartesian
0.0008758742 3.81706e-05 7.3495879643
-0.0049070339 1.4211276848 7.3509733175
2.4807903313 0.0266453165 7.3482107125
2.47905035 1.4471680134 7.3587946721
4.9528900275 0.0277173795 7.3512393183
4.9595865688 1.4468241613 7.3607834785
-0.0004912048 12.7528784647 7.3506876217
7.4436135905 1.4162820998 7.349802296
2.4785432606 12.7412004805 7.3597958572
9.910030754 1.3933841612 7.3486581155
4.9544397545 12.7263605636 7.3605995514
12.3669063505 1.3892574574 7.350981227
13.6049921378 2.1124126237 7.3524484325
-1.2510157585 3.5283320305 7.3625340194
1.2357333653 2.1445135185 7.3605069373
1.2351180042 3.5676711648 7.3860763113
3.7191078968 2.1718788765 7.3761276073
3.7171893296 3.5900587424 7.4233261295
6.2044287731 2.1448515973 7.3609912953
6.1998935085 3.5662820797 7.3858969514
8.688125871 2.1049432252 7.3488715363
8.6900494497 3.5202757595 7.3560461606
11.1329105621 2.0961785699 7.3495202439
11.135397275 3.5159076607 7.351604986
12.3729989981 4.2286859364 7.3600531382
-2.4893641388 5.6564853159 7.3667958207
-0.0163162282 4.245896943 7.3850868169
-0.0416590227 5.6614953737 7.4108480921
2.4729622805 4.3097722321 7.4361419357
2.4251010276 5.7222239466 7.5259900252
4.9619177978 4.3097260999 7.4391579137
5.0082067904 5.7217141257 7.5315571907
7.4511999765 4.2372647992 7.3797039251
7.4755734897 5.6567515767 7.4028628412
9.9142617019 4.2396862066 7.3538221673
9.9202310986 5.6597873028 7.3588972515
-3.7115738763 6.3746610173 7.3592504718
-3.7121605416 7.7966777155 7.359290423
-1.2692483207 6.3731284957 7.3896908865
-1.2672771081 7.7983621193 7.3896046506
1.1792190188 6.36900507 7.4640698591
1.1801994852 7.8063363186 7.4634080878
6.2560032569 6.3663095526 7.4625423374
6.253985024 7.8046155966 7.46252108
8.6993611836 6.3744372915 7.3783508386
8.6996439284 7.7961421006 7.3783147462
-4.938086971 8.5110824108 7.3589436878
-4.9441462359 9.9365901258 7.3537232431
-2.4859500537 8.511969057 7.3668034156
-2.4793053699 9.9364210252 7.3598695384
-0.0390640648 8.5143589222 7.4100137758
-0.0118833937 9.9326516182 7.3849118516
2.4265025159 8.4532889344 7.5269102866
2.4724883377 9.868119565 7.4360157208
5.0048173614 8.4539281271 7.5327771393
4.9572562201 9.8676800982 7.4386700849
7.4716095909 8.5108557066 7.4027340823
7.4461643868 9.9276539706 7.3795808842
-6.17883816 10.6448994027 7.3555418408
-6.1836759383 12.0645376622 7.3480459556
-3.7121454182 10.6501758501 7.3512925946
-3.7124566642 12.072247254 7.349358994
-1.2454641186 10.6434862172 7.3623528996
-1.2407290232 12.0646549197 7.3523620431
1.2431668123 10.614230495 7.3861926718
1.2425738513 12.0426912078 7.3606690554
3.709533956 10.5918359266 7.4227446423
3.7130767744 12.0151532875 7.3768278488
6.1940457735 10.6055966765 7.3856857231
6.1915728013 12.0308779244 7.3609450015
3.7130222934 7.0885536608 8.206554865
3.7130222934 7.0885536608 10.686554865
3.3920083468 6.3627099681 11.5318920487