POSCAR-clean                            
   1.0000000000000000     
    14.8598008644000004    0.0015859830000000    0.0000000000000000
    -7.4299004321000002   12.7560967618000003    0.0000000000000000
     0.0000000000000000    0.0000000000000000   15.0000000000000000
   C    N    C    Cr   C    O 
     1     1    68     1     1     1
Direct
 -0.0006761979669312  0.0005065541095014  0.4934809367810012
  0.0545790527783334  0.1109985222832607  0.4922751003098069
  0.1670356436391189  0.0015689656633810  0.4926709826572376
  0.2216478450890366  0.1126208493213777  0.4924524047767663
  0.3335824105266309  0.0021688060907547  0.4917555128318139
  0.3889148166958152  0.1134174019045696  0.4938168156658324
  0.4997616669241886  0.0010777504990198  0.4897508644301725
  0.5553779224276717  0.1125971332108897  0.4922157146129977
  0.6660061935543031  0.9993116059662094  0.4892701720545031
  0.7218407358772023  0.1104163527267447  0.4909458701993671
  0.8318537054257282  0.9986499571178850  0.4928766148457390
  0.8883157660981399  0.1097754565872145  0.4918969761442513
 -0.0006075243850636  0.1654876768002956  0.4918761065447405
  0.0545263370556338  0.2765296584242733  0.4915592670248662
  0.1648433483888938  0.1667132258384498  0.4916031825143325
  0.2204892659417121  0.2777639697478211  0.4899174258310416
  0.3337129470714536  0.1697633727491012  0.4942180143693655
  0.3898820877249689  0.2810365002413988  0.4969243165301886
  0.5002351404118733  0.1692379976196753  0.4946495854816507
  0.5559757066878848  0.2809388364580649  0.4988332434597984
  0.6664108519894835  0.1666671028253595  0.4926610310802308
  0.7219489892430515  0.2778421538173253  0.4953956892470692
  0.8331641909911425  0.1660563512319554  0.4916647923383139
  0.8882969638650681  0.2773199411632317  0.4927815026707157
  0.9988743852376017  0.3324158202408122  0.4923182897385284
  0.0544212595085395  0.4441103901166085  0.4924402058418081
  0.1650853301814877  0.3331822999352180  0.4908799854066275
  0.2195530796037225  0.4442166012687486  0.4916416390233141
  0.3327937025561375  0.3348536620381983  0.4909840170697406
  0.3860370292260479  0.4451377348190519  0.4901530762081512
  0.5017046834790220  0.3393925715709410  0.5033757978505362
  0.5590891433003089  0.4512559495300579  0.5135382080703547
  0.6669649473536352  0.3337145023529495  0.4988867400289950
  0.7236411108376410  0.4449654819569633  0.5013023218837745
  0.8331846796400227  0.3331911381655646  0.4946414144210491
  0.8891449329074252  0.4445396442233303  0.4953509458082387
 -0.0003315733247561  0.5001411825758008  0.4935500147431405
  0.0554009739762847  0.6117712755542339  0.4930627255593850
  0.1648350273334809  0.5002090774141307  0.4920685985140087
  0.2206558130334105  0.6116564668807678  0.4911795308607884
  0.3299527443966462  0.4993779569012568  0.4878499893431764
  0.3865724921769525  0.6123134356474226  0.4855368145977224
  0.6696758429854786  0.5005423967193837  0.5078653762807490
  0.7253380483668486  0.6118916419718226  0.5076839527008966
  0.8344681851138852  0.5004809421953734  0.4980087566176031
  0.8900666767613648  0.6116780837764193  0.4976930348703336
  0.0005435291648012  0.6676386965866697  0.4946015739389824
  0.0558356571440658  0.7791434205788537  0.4937842084629134
  0.1659181050528984  0.6675425361557563  0.4912064437735835
  0.2218210718528962  0.7790088654894800  0.4903970413355987
  0.3312682076774373  0.6674869161282513  0.4890617593419131
  0.3880939999492464  0.7788478715762022  0.4870114600526805
  0.4969810695747536  0.6656649285194520  0.4822553608369898
  0.5539910251288698  0.7759023551983437  0.4852696319616653
  0.6647276143048717  0.6616520058430188  0.5135380880901960
  0.7190513105810197  0.7732027450511719  0.5017341559435807
  0.8348947744805137  0.6672638340911985  0.5007071517916039
  0.8894098296109237  0.7785589090688644  0.4984294914517721
 -0.0000644273694843  0.8347418756423536  0.4951199783357578
  0.0558343111922968  0.9463424214461928  0.4936474125929530
  0.1665318992596853  0.8346518623204311  0.4917654520267776
  0.2224119171161190  0.9462281830762427  0.4919477697134507
  0.3329873868642373  0.8347660189177245  0.4887098415877055
  0.3887900017393935  0.9460689409780509  0.4897773195046604
  0.4992424726365179  0.8333093761909749  0.4854839661548260
  0.5549151762639017  0.9447513244284781  0.4879709547269977
  0.6653091671590811  0.8308637076365075  0.4930636866028291
  0.7208161855573914  0.9423473107331491  0.4914309553228448
  0.8319746770105945  0.8318424140411480  0.4982391757537874
  0.8879916629313004  0.9439180464775094  0.4945103504488995
  0.5125413594397918  0.5568375136149522  0.5404362004774919
  0.5270223410978089  0.5215857215296923  0.6602957669136150
  0.5350138112505817  0.5020441138165619  0.7341012449684883

  0.00000000E+00  0.00000000E+00  0.00000000E+00
  0.00000000E+00  0.00000000E+00  0.00000000E+00
  0.00000000E+00  0.00000000E+00  0.00000000E+00
  0.00000000E+00  0.00000000E+00  0.00000000E+00
  0.00000000E+00  0.00000000E+00  0.00000000E+00
  0.00000000E+00  0.00000000E+00  0.00000000E+00
  0.00000000E+00  0.00000000E+00  0.00000000E+00
  0.00000000E+00  0.00000000E+00  0.00000000E+00
  0.00000000E+00  0.00000000E+00  0.00000000E+00
  0.00000000E+00  0.00000000E+00  0.00000000E+00
  0.00000000E+00  0.00000000E+00  0.00000000E+00
  0.00000000E+00  0.00000000E+00  0.00000000E+00
  0.00000000E+00  0.00000000E+00  0.00000000E+00
  0.00000000E+00  0.00000000E+00  0.00000000E+00
  0.00000000E+00  0.00000000E+00  0.00000000E+00
  0.00000000E+00  0.00000000E+00  0.00000000E+00
  0.00000000E+00  0.00000000E+00  0.00000000E+00
  0.00000000E+00  0.00000000E+00  0.00000000E+00
  0.00000000E+00  0.00000000E+00  0.00000000E+00
  0.00000000E+00  0.00000000E+00  0.00000000E+00
  0.00000000E+00  0.00000000E+00  0.00000000E+00
  0.00000000E+00  0.00000000E+00  0.00000000E+00
  0.00000000E+00  0.00000000E+00  0.00000000E+00
  0.00000000E+00  0.00000000E+00  0.00000000E+00
  0.00000000E+00  0.00000000E+00  0.00000000E+00
  0.00000000E+00  0.00000000E+00  0.00000000E+00
  0.00000000E+00  0.00000000E+00  0.00000000E+00
  0.00000000E+00  0.00000000E+00  0.00000000E+00
  0.00000000E+00  0.00000000E+00  0.00000000E+00
  0.00000000E+00  0.00000000E+00  0.00000000E+00
  0.00000000E+00  0.00000000E+00  0.00000000E+00
  0.00000000E+00  0.00000000E+00  0.00000000E+00
  0.00000000E+00  0.00000000E+00  0.00000000E+00
  0.00000000E+00  0.00000000E+00  0.00000000E+00
  0.00000000E+00  0.00000000E+00  0.00000000E+00
  0.00000000E+00  0.00000000E+00  0.00000000E+00
  0.00000000E+00  0.00000000E+00  0.00000000E+00
  0.00000000E+00  0.00000000E+00  0.00000000E+00
  0.00000000E+00  0.00000000E+00  0.00000000E+00
  0.00000000E+00  0.00000000E+00  0.00000000E+00
  0.00000000E+00  0.00000000E+00  0.00000000E+00
  0.00000000E+00  0.00000000E+00  0.00000000E+00
  0.00000000E+00  0.00000000E+00  0.00000000E+00
  0.00000000E+00  0.00000000E+00  0.00000000E+00
  0.00000000E+00  0.00000000E+00  0.00000000E+00
  0.00000000E+00  0.00000000E+00  0.00000000E+00
  0.00000000E+00  0.00000000E+00  0.00000000E+00
  0.00000000E+00  0.00000000E+00  0.00000000E+00
  0.00000000E+00  0.00000000E+00  0.00000000E+00
  0.00000000E+00  0.00000000E+00  0.00000000E+00
  0.00000000E+00  0.00000000E+00  0.00000000E+00
  0.00000000E+00  0.00000000E+00  0.00000000E+00
  0.00000000E+00  0.00000000E+00  0.00000000E+00
  0.00000000E+00  0.00000000E+00  0.00000000E+00
  0.00000000E+00  0.00000000E+00  0.00000000E+00
  0.00000000E+00  0.00000000E+00  0.00000000E+00
  0.00000000E+00  0.00000000E+00  0.00000000E+00
  0.00000000E+00  0.00000000E+00  0.00000000E+00
  0.00000000E+00  0.00000000E+00  0.00000000E+00
  0.00000000E+00  0.00000000E+00  0.00000000E+00
  0.00000000E+00  0.00000000E+00  0.00000000E+00
  0.00000000E+00  0.00000000E+00  0.00000000E+00
  0.00000000E+00  0.00000000E+00  0.00000000E+00
  0.00000000E+00  0.00000000E+00  0.00000000E+00
  0.00000000E+00  0.00000000E+00  0.00000000E+00
  0.00000000E+00  0.00000000E+00  0.00000000E+00
  0.00000000E+00  0.00000000E+00  0.00000000E+00
  0.00000000E+00  0.00000000E+00  0.00000000E+00
  0.00000000E+00  0.00000000E+00  0.00000000E+00
  0.00000000E+00  0.00000000E+00  0.00000000E+00
  0.00000000E+00  0.00000000E+00  0.00000000E+00
  0.00000000E+00  0.00000000E+00  0.00000000E+00
  0.00000000E+00  0.00000000E+00  0.00000000E+00
