POSCAR-clean
1.0
14.8588663937 0.0008149544 0.0
-7.4294331968 12.7557954065 0.0
0.0 0.0 15.0
C N C Cr C O
65 1 4 1 1 1
Cartesian
7.428917005 12.7550692246 7.2540222402
0.0004143308 1.4203125845 7.2550921091
2.4839933159 0.0255900336 7.2524209169
2.4801181805 1.4464017559 7.2630985458
4.9625767985 0.0269086297 7.2553886964
4.9571966499 1.4444362874 7.2651356866
0.013403894 12.7474984904 7.2561758752
7.4410264115 1.4112040024 7.254751873
2.4673878334 12.7222057038 7.2630098074
9.9006746983 1.3832785974 7.2525595606
4.9436466065 12.7297915221 7.264757526
12.3783217265 1.392569266 7.2554370179
13.6145414127 2.1118032897 7.2565935853
-1.2487140502 3.5296249609 7.2666271773
1.2388545229 2.1443954974 7.2646112321
1.236524428 3.5685465597 7.2905692554
3.7180901364 2.1708947136 7.2802943236
3.7171682781 3.5887421248 7.3267340751
6.1987292784 2.1346369958 7.2656007305
6.1995057067 3.5620219269 7.2897545486
8.67653234 2.1136112011 7.2523571971
8.6805789546 3.5277686785 7.2595737519
11.1427906033 2.0952072305 7.2536360548
11.1431535094 3.5200806153 7.2557152485
12.3761476953 4.2362890395 7.2640417003
-2.4873721468 5.6617402943 7.2707137423
-0.0148009061 4.2474537951 7.2898265303
-0.0393174288 5.6643934602 7.3164276623
2.4731770915 4.3105996683 7.3401950833
2.4281062366 5.7248118906 7.4267547182
4.9628672446 4.3064311832 7.3423157857
5.0077505507 5.71994685 7.435267083
7.4473292025 4.2447446905 7.28424672
7.4722334849 5.6614769645 7.3091515046
9.9155159409 4.2368682479 7.2579056267
9.9201924837 5.6604110212 7.2629421979
-3.7114817305 6.3758006012 7.2631252078
-3.711557538 7.7976529396 7.2633203545
-1.2660997242 6.3790804848 7.2946791037
-1.2652499389 7.8024477598 7.2940488185
1.1801833315 6.372432279 7.3684206814
1.1778525525 7.8099120704 7.3678155614
6.2535016396 6.3683096478 7.3691960654
6.2523881005 7.8057410647 7.3678732389
8.7008083084 6.3755942313 7.2830240423
8.700229958 7.7983158282 7.2829291837
-4.9378299386 8.5128975455 7.2632464094
-4.9438975355 9.9372592205 7.2579539592
-2.4849363339 8.5120735782 7.2709142478
-2.4788716348 9.9373645868 7.263852557
-0.033941622 8.5193229019 7.3137171898
-0.0122196749 9.9407758116 7.2885855065
2.4197227471 8.4653475807 7.4351654341
2.46569199 9.8794088391 7.3431606462
5.0031483946 8.4496319061 7.4320337533
4.956151268 9.8659798772 7.3416137691
7.4718108316 8.5125564391 7.3079863098
7.4469480907 9.9298645601 7.2839429631
-6.1786287131 10.6451510372 7.2596830665
-6.1831760139 12.0633622506 7.2522052743
-3.7112360636 10.6514480047 7.2554264807
-3.7068102619 12.0712288767 7.2534589834
-1.2484130308 10.6423161932 7.2661894441
-1.2291890198 12.0594929083 7.2568167191
1.2358579948 10.6212901757 7.2912479875
1.2377303409 12.0312462956 7.2650399839
3.7190376431 10.5846741805 7.3264879387
3.7035430216 12.0000372725 7.2794996291
6.194854547 10.6091537661 7.2898371381
6.1875486171 12.030997272 7.265696984
3.7143510412 7.0912420649 8.1075875971
3.7143510412 7.0912420649 14.0875875971
3.3933370946 6.3653983722 14.9329247808