POSCAR-c3n4                             
  0.90000000000000002     
    13.8434242346000005   -0.1907404740000000    0.0000000000000000
    -6.9217121174000003   11.6951909939000007    0.0000000000000000
     0.0000000000000000    0.0000000000000000   15.0000000000000000
   C    N    Ge   C    O 
    24    32     1     1     1
Direct
  0.1018118367535976  0.2040776664543031  0.4076544147974133
  0.2920787538040059  0.4130856019784375  0.4329583760573072
  0.0917141935564914  0.3878003706836068  0.4084897648125789
  0.4483608301781032  0.0553901140435613  0.4948729154177300
  0.4839999122722389  0.4522746442226619  0.4039088676418245
  0.1219573072501490  0.0540030897793500  0.4727065778179806
  0.0594709653362955  0.6948215513677312  0.5243576445880791
  0.2769515580637290  0.8654824521031159  0.5370804760136778
  0.1208657200013050  0.9051057722507565  0.5646252058609349
  0.4423594506721216  0.5376493765443868  0.5509347443558283
  0.4406578092166811  0.8544676801066515  0.4912966323872467
  0.0342083763394427  0.5067390093314970  0.4922769930567341
  0.6303003386451351  0.2219062409444064  0.4372832766711454
  0.7780247041857606  0.4109603239615467  0.3261220744429423
  0.6379098076742409  0.4185216885249474  0.4251641212180246
  0.9330389338566150  0.0481239581342479  0.4835969447491024
  0.9449446421951322  0.4077227666071153  0.3346055731228219
  0.6343624029883372  0.0588472814925680  0.5059434430410406
  0.6152066505821310  0.6942978697103754  0.6200612001111026
  0.7975481320175604  0.9065637660602448  0.5952555726734303
  0.6032416725712153  0.8776456870277585  0.5725447814945710
  0.9225999815391859  0.5828990152742577  0.3998351647490850
  0.9907048862675651  0.9587738329696052  0.6186710268396780
  0.6379888594585026  0.5489473244871093  0.5393775007980253
  0.1650877048318762  0.3341940853900383  0.4076875741646973
  0.1696751570422563  0.1490822067257582  0.4088061128295593
  0.3440820724426672  0.9923056464199576  0.5487350296429341
  0.5547122358959058  0.4153649193897664  0.3623259491292643
  0.3696162312424605  0.4111434928645110  0.3690041122797183
  0.5094179534550420  0.1758013667311502  0.4673669333571269
  0.1519131206330684  0.9671187998928517  0.4790253504483459
  0.0243547908932982  0.0368784821069070  0.5368205640173542
  0.1526311878673923  0.8110569416559272  0.5672343127975950
  0.0659799376097894  0.5962120110094560  0.5605880944545376
  0.3206340460899284  0.4785163686454652  0.5219792321471957
  0.5016883205314855  0.7971718077294199  0.5190740227726138
  0.3137312156529859  0.7880405836140767  0.4996471879677031
  0.4866027679654295  0.6183783792340876  0.6260476838326952
  0.0926186345990132  0.4417613743688875  0.4965557599092918
  0.9639911530527669  0.4950896215500649  0.4134176988445475
  0.6846822300429380  0.3415845664416040  0.3904105069719890
  0.7021510671405338  0.1772568675632797  0.4709836427542626
  0.8156012957811143  0.9577632617359129  0.5043069055226823
  0.0310436136956511  0.3746536055453973  0.3264427576098043
  0.8429170945634326  0.3624368478390494  0.2827898773176685
  0.9748116337604316  0.1408211536915687  0.4174388313135964
  0.6645711189278245  0.0051827976542071  0.5776158849698732
  0.5054795314643101  0.9819248507687846  0.4720769630972441
  0.6672083010597802  0.8258818383017683  0.6201528520358082
  0.6898793144251556  0.6488093391996159  0.5997361050527914
  0.8303453110501096  0.5442768822968347  0.3364293517663342
  0.0582529159329823  0.9069482580197317  0.6430362533912017
  0.8787858668178004  0.9154235085563158  0.6619688806458939
  0.9886005503785427  0.6943500209271534  0.4509451289777147
  0.6858995975839903  0.4796821481385436  0.5105887339572064
  0.5214405165223326  0.5165910185077820  0.4952068037428248
  0.2475288490005525  0.5769786835977655  0.5982493983653328
  0.2615565366674772  0.5856165649417875  0.8363339727870098
  0.2323216815471199  0.4949171265295718  0.8813482382806299

  0.00000000E+00  0.00000000E+00  0.00000000E+00
  0.00000000E+00  0.00000000E+00  0.00000000E+00
  0.00000000E+00  0.00000000E+00  0.00000000E+00
  0.00000000E+00  0.00000000E+00  0.00000000E+00
  0.00000000E+00  0.00000000E+00  0.00000000E+00
  0.00000000E+00  0.00000000E+00  0.00000000E+00
  0.00000000E+00  0.00000000E+00  0.00000000E+00
  0.00000000E+00  0.00000000E+00  0.00000000E+00
  0.00000000E+00  0.00000000E+00  0.00000000E+00
  0.00000000E+00  0.00000000E+00  0.00000000E+00
  0.00000000E+00  0.00000000E+00  0.00000000E+00
  0.00000000E+00  0.00000000E+00  0.00000000E+00
  0.00000000E+00  0.00000000E+00  0.00000000E+00
  0.00000000E+00  0.00000000E+00  0.00000000E+00
  0.00000000E+00  0.00000000E+00  0.00000000E+00
  0.00000000E+00  0.00000000E+00  0.00000000E+00
  0.00000000E+00  0.00000000E+00  0.00000000E+00
  0.00000000E+00  0.00000000E+00  0.00000000E+00
  0.00000000E+00  0.00000000E+00  0.00000000E+00
  0.00000000E+00  0.00000000E+00  0.00000000E+00
  0.00000000E+00  0.00000000E+00  0.00000000E+00
  0.00000000E+00  0.00000000E+00  0.00000000E+00
  0.00000000E+00  0.00000000E+00  0.00000000E+00
  0.00000000E+00  0.00000000E+00  0.00000000E+00
  0.00000000E+00  0.00000000E+00  0.00000000E+00
  0.00000000E+00  0.00000000E+00  0.00000000E+00
  0.00000000E+00  0.00000000E+00  0.00000000E+00
  0.00000000E+00  0.00000000E+00  0.00000000E+00
  0.00000000E+00  0.00000000E+00  0.00000000E+00
  0.00000000E+00  0.00000000E+00  0.00000000E+00
  0.00000000E+00  0.00000000E+00  0.00000000E+00
  0.00000000E+00  0.00000000E+00  0.00000000E+00
  0.00000000E+00  0.00000000E+00  0.00000000E+00
  0.00000000E+00  0.00000000E+00  0.00000000E+00
  0.00000000E+00  0.00000000E+00  0.00000000E+00
  0.00000000E+00  0.00000000E+00  0.00000000E+00
  0.00000000E+00  0.00000000E+00  0.00000000E+00
  0.00000000E+00  0.00000000E+00  0.00000000E+00
  0.00000000E+00  0.00000000E+00  0.00000000E+00
  0.00000000E+00  0.00000000E+00  0.00000000E+00
  0.00000000E+00  0.00000000E+00  0.00000000E+00
  0.00000000E+00  0.00000000E+00  0.00000000E+00
  0.00000000E+00  0.00000000E+00  0.00000000E+00
  0.00000000E+00  0.00000000E+00  0.00000000E+00
  0.00000000E+00  0.00000000E+00  0.00000000E+00
  0.00000000E+00  0.00000000E+00  0.00000000E+00
  0.00000000E+00  0.00000000E+00  0.00000000E+00
  0.00000000E+00  0.00000000E+00  0.00000000E+00
  0.00000000E+00  0.00000000E+00  0.00000000E+00
  0.00000000E+00  0.00000000E+00  0.00000000E+00
  0.00000000E+00  0.00000000E+00  0.00000000E+00
  0.00000000E+00  0.00000000E+00  0.00000000E+00
  0.00000000E+00  0.00000000E+00  0.00000000E+00
  0.00000000E+00  0.00000000E+00  0.00000000E+00
  0.00000000E+00  0.00000000E+00  0.00000000E+00
  0.00000000E+00  0.00000000E+00  0.00000000E+00
  0.00000000E+00  0.00000000E+00  0.00000000E+00
  0.00000000E+00  0.00000000E+00  0.00000000E+00
  0.00000000E+00  0.00000000E+00  0.00000000E+00
