POSCAR-c3n4                             
  0.90000000000000002     
    13.8434242346000005   -0.1907404740000000    0.0000000000000000
    -6.9217121174000003   11.6951909939000007    0.0000000000000000
     0.0000000000000000    0.0000000000000000   15.0000000000000000
   C    N    Ge   C    O 
    24    32     1     1     1
Direct
  0.1018118367535956  0.2040776664543029  0.4076544147974116
  0.2920787538040070  0.4130856019784369  0.4329583760573057
  0.0917141935564925  0.3878003706836071  0.4084897648125806
  0.4483608301781066  0.0553901140435590  0.4948729154177325
  0.4839999122722402  0.4522746442226614  0.4039088676418222
  0.1219573072501503  0.0540030897793477  0.4727065778179831
  0.0594709653362980  0.6948215513677346  0.5243576445880791
  0.2769515580637323  0.8654824521031166  0.5370804760136790
  0.1208657200013074  0.9051057722507575  0.5646252058609353
  0.4423594506721189  0.5376493765443856  0.5509347443558263
  0.4406578092166778  0.8544676801066539  0.4912966323872437
  0.0342083763394454  0.5067390093314992  0.4922769930567309
  0.6303003386451359  0.2219062409444091  0.4372832766711433
  0.7780247041857576  0.4109603239615435  0.3261220744429437
  0.6379098076742423  0.4185216885249440  0.4251641212180215
  0.9330389338566150  0.0481239581342447  0.4835969447491047
  0.9449446421951340  0.4077227666071176  0.3346055731228230
  0.6343624029883406  0.0588472814925691  0.5059434430410426
  0.6152066505821280  0.6942978697103780  0.6200612001111057
  0.7975481320175578  0.9065637660602466  0.5952555726734278
  0.6032416725712145  0.8776456870277571  0.5725447814945688
  0.9225999815391845  0.5828990152742579  0.3998351647490882
  0.9907048862675624  0.9587738329696018  0.6186710268396773
  0.6379888594585051  0.5489473244871064  0.5393775007980286
  0.1650877048318778  0.3341940853900390  0.4076875741646946
  0.1696751570422567  0.1490822067257584  0.4088061128295596
  0.3440820724426705 -0.0076943535800453  0.5487350296429347
  0.5547122358959080  0.4153649193897688  0.3623259491292626
  0.3696162312424615  0.4111434928645138  0.3690041122797201
  0.5094179534550440  0.1758013667311510  0.4673669333571233
  0.1519131206330686  0.9671187998928529  0.4790253504483486
  0.0243547908932958  0.0368784821069062  0.5368205640173551
  0.1526311878673931  0.8110569416559265  0.5672343127975923
  0.0659799376097873  0.5962120110094544  0.5605880944545393
  0.3206340460899264  0.4785163686454681  0.5219792321471988
  0.5016883205314839  0.7971718077294209  0.5190740227726124
  0.3137312156529835  0.7880405836140733  0.4996471879677002
  0.4866027679654278  0.6183783792340908  0.6260476838326983
  0.0926186345990143  0.4417613743688871  0.4965557599092901
  0.9639911530527641  0.4950896215500669  0.4134176988445486
  0.6846822300429408  0.3415845664416052  0.3904105069719890
  0.7021510671405317  0.1772568675632791  0.4709836427542634
  0.8156012957811133  0.9577632617359094  0.5043069055226823
  0.0310436136956503  0.3746536055453970  0.3264427576098048
  0.8429170945634350  0.3624368478390528  0.2827898773176717
  0.9748116337604320  0.1408211536915715  0.4174388313135956
  0.6645711189278251  0.0051827976542074  0.5776158849698702
  0.5054795314643082 -0.0180751492312140  0.4720769630972432
  0.6672083010597779  0.8258818383017694  0.6201528520358066
  0.6898793144251544  0.6488093391996133  0.5997361050527897
  0.8303453110501126  0.5442768822968318  0.3364293517663347
  0.0582529159329816  0.9069482580197324  0.6430362533912013
  0.8787858668178028  0.9154235085563169  0.6619688806458921
 -0.0113994496214549  0.6943500209271546  0.4509451289777138
  0.6858995975839878  0.4796821481385442  0.5105887339572052
  0.5214405165223307  0.5165910185077842  0.4952068037428269
  0.2475288490005540  0.5769786835977656  0.5982493983653333
  0.2615565366674762  0.5856165649417892  0.8363339727870108
  0.2323216815471227  0.4949171265295720  0.8813482382806317

  0.00000000E+00  0.00000000E+00  0.00000000E+00
  0.00000000E+00  0.00000000E+00  0.00000000E+00
  0.00000000E+00  0.00000000E+00  0.00000000E+00
  0.00000000E+00  0.00000000E+00  0.00000000E+00
  0.00000000E+00  0.00000000E+00  0.00000000E+00
  0.00000000E+00  0.00000000E+00  0.00000000E+00
  0.00000000E+00  0.00000000E+00  0.00000000E+00
  0.00000000E+00  0.00000000E+00  0.00000000E+00
  0.00000000E+00  0.00000000E+00  0.00000000E+00
  0.00000000E+00  0.00000000E+00  0.00000000E+00
  0.00000000E+00  0.00000000E+00  0.00000000E+00
  0.00000000E+00  0.00000000E+00  0.00000000E+00
  0.00000000E+00  0.00000000E+00  0.00000000E+00
  0.00000000E+00  0.00000000E+00  0.00000000E+00
  0.00000000E+00  0.00000000E+00  0.00000000E+00
  0.00000000E+00  0.00000000E+00  0.00000000E+00
  0.00000000E+00  0.00000000E+00  0.00000000E+00
  0.00000000E+00  0.00000000E+00  0.00000000E+00
  0.00000000E+00  0.00000000E+00  0.00000000E+00
  0.00000000E+00  0.00000000E+00  0.00000000E+00
  0.00000000E+00  0.00000000E+00  0.00000000E+00
  0.00000000E+00  0.00000000E+00  0.00000000E+00
  0.00000000E+00  0.00000000E+00  0.00000000E+00
  0.00000000E+00  0.00000000E+00  0.00000000E+00
  0.00000000E+00  0.00000000E+00  0.00000000E+00
  0.00000000E+00  0.00000000E+00  0.00000000E+00
  0.00000000E+00  0.00000000E+00  0.00000000E+00
  0.00000000E+00  0.00000000E+00  0.00000000E+00
  0.00000000E+00  0.00000000E+00  0.00000000E+00
  0.00000000E+00  0.00000000E+00  0.00000000E+00
  0.00000000E+00  0.00000000E+00  0.00000000E+00
  0.00000000E+00  0.00000000E+00  0.00000000E+00
  0.00000000E+00  0.00000000E+00  0.00000000E+00
  0.00000000E+00  0.00000000E+00  0.00000000E+00
  0.00000000E+00  0.00000000E+00  0.00000000E+00
  0.00000000E+00  0.00000000E+00  0.00000000E+00
  0.00000000E+00  0.00000000E+00  0.00000000E+00
  0.00000000E+00  0.00000000E+00  0.00000000E+00
  0.00000000E+00  0.00000000E+00  0.00000000E+00
  0.00000000E+00  0.00000000E+00  0.00000000E+00
  0.00000000E+00  0.00000000E+00  0.00000000E+00
  0.00000000E+00  0.00000000E+00  0.00000000E+00
  0.00000000E+00  0.00000000E+00  0.00000000E+00
  0.00000000E+00  0.00000000E+00  0.00000000E+00
  0.00000000E+00  0.00000000E+00  0.00000000E+00
  0.00000000E+00  0.00000000E+00  0.00000000E+00
  0.00000000E+00  0.00000000E+00  0.00000000E+00
  0.00000000E+00  0.00000000E+00  0.00000000E+00
  0.00000000E+00  0.00000000E+00  0.00000000E+00
  0.00000000E+00  0.00000000E+00  0.00000000E+00
  0.00000000E+00  0.00000000E+00  0.00000000E+00
  0.00000000E+00  0.00000000E+00  0.00000000E+00
  0.00000000E+00  0.00000000E+00  0.00000000E+00
  0.00000000E+00  0.00000000E+00  0.00000000E+00
  0.00000000E+00  0.00000000E+00  0.00000000E+00
  0.00000000E+00  0.00000000E+00  0.00000000E+00
  0.00000000E+00  0.00000000E+00  0.00000000E+00
  0.00000000E+00  0.00000000E+00  0.00000000E+00
  0.00000000E+00  0.00000000E+00  0.00000000E+00
