POSCAR-c3n4
0.86
13.8434242346 -0.190740474 0.0
-6.9217121174 11.6951909939 0.0
0.0 0.0 15.0
C N Ge C O
24 32 1 1 1
Cartesian
-0.0149534066 2.4769891554 6.5457677403
1.2206073451 4.6076052329 6.6461771643
-1.2748902218 4.5620640663 6.5581160283
5.7506808922 0.6612841331 7.7342119533
3.4880543574 4.6063553697 6.3366873708
1.1858997874 0.5954256003 6.8790252873
-3.5934096387 8.3075480293 7.4073245418
-2.2245325413 10.355229205 7.6668238053
-4.6828519457 10.450701721 7.6206858408
2.4058454244 6.3266954371 7.6773625833
0.039411223 10.2676395571 7.4833555458
-2.5491802681 6.3234371289 7.3588732668
6.9865645411 2.4896475991 7.2393730728
8.1038847101 4.4085915022 6.1470462543
5.7203206549 4.4952637194 6.6807296568
12.644133914 0.432429271 7.0593084963
10.347324234 4.3410960104 6.0570059448
8.1675290702 0.6481928627 7.8292806228
3.5665748784 8.2004714627 8.1175371303
4.7235456933 10.3431224429 7.9920070458
2.2592693015 10.321510029 7.9687107993
9.0937862697 6.4034777797 6.4564485738
6.9701756675 10.3637382575 8.1687731733
4.7618326573 6.3682889142 7.4967094623
-0.0143545899 3.8913851712 6.5242306863
1.1663688332 1.8511557542 6.4630863468
4.6425652415 -0.0430099494 7.9811703168
4.6447862542 4.0245746302 6.0345974868
2.2750909497 4.1532361166 5.9950985688
5.7767220953 1.9705011011 7.5460809348
-4.6427719793 11.5271337967 6.8486536098
0.0168260121 0.0213869775 7.3914326643
-3.4717785011 9.6853226633 7.6526989083
-2.6112404649 7.5209719922 7.9156251198
1.2200524639 5.6805851381 7.5220647558
1.2112002572 9.6202252249 7.4946566898
-1.1295054931 9.6356154515 7.3394113083
2.42268065 7.4836748111 8.3213117463
-1.385538431 5.6293009823 7.4255469948
10.2499101978 5.6117700653 6.6886251213
6.9533792998 3.7339184889 6.5885709918
8.1771848393 1.9523433611 7.5773711073
4.6249414916 11.3763069806 7.1665432818
-2.2575552407 4.0690022757 5.8308420678
9.2113741695 3.7029417659 5.8417346283
12.6314649188 1.6937471511 6.6757685973
9.2231181554 -0.0662462615 8.2410192108
6.9619585121 -0.0508772127 7.6234428618
3.4908331673 9.6061589951 8.1617933748
4.7428573248 7.6545012503 7.8357753423
8.0122898217 5.7668743313 6.0850049118
-5.6848528816 9.9729164739 8.3789636538
5.8067784991 9.8907843407 8.6395506543
-4.6291049666 7.9199208049 6.6671270238
5.840437551 5.6182614068 7.4061166743
3.5267159812 5.7721550817 7.1562241743
-0.1339422181 6.8791707283 8.5157272128
-0.1339422181 6.8791707283 14.4957272128
-0.4549561647 6.1533270356 15.3410643965