POSCAR-clean
1.0
14.85980086435136 0.0015859829557352 0.0
-7.429900432125741 12.756096761849992 0.0
0.0 0.0 15.0
C N C Cr
1 1 68 1
Cartesian
0.0021779055 0.0107910792 0.0027086002
0.0007612354 1.4213194262 0.0036520383
2.4829276965 0.0245216771 5.65527e-05
2.466299178 1.4429503724 0.0106176489
4.9509695418 0.0283579455 0.0033169954
4.9477124898 1.4475493081 0.0128487951
7.4316184374 -0.0006568864 0.00313565
7.4324800371 1.4217191289 0.0019265861
2.4812182438 12.7311733055 0.0109209916
9.9178764334 1.3946899774 0.0002756034
4.9519013267 12.7288278485 0.0130550916
12.3952160028 1.3909273722 0.0030604786
13.6298021521 2.1069480926 0.0044150723
-1.2381018772 3.5205569428 0.01438414
1.2255014367 2.1370803661 0.0133430709
1.2255266206 3.5580905831 0.0381460454
3.7065727176 2.173485617 0.0277735297
3.7136463677 3.5895262902 0.0751872731
6.1923990018 2.145394236 0.0134341261
6.1969737732 3.5681117625 0.037963272
8.6792828929 2.1125027312 4.43733e-05
8.6820055163 3.5307118396 0.0077263458
11.1568700861 2.1061773971 0.0012843391
11.1497956842 3.5252931148 0.0034812209
12.3811130416 4.2309992902 0.0118777695
-2.4862493389 5.6561541902 0.0189150392
-0.0157733886 4.2480456372 0.0371420862
-0.0415167828 5.6607417579 0.0621961497
2.4682314691 4.3001447539 0.0890310591
2.421942854 5.7146054569 0.1805493194
4.9588884293 4.3104667725 0.0909485101
5.0078106978 5.7223543219 0.1838336181
7.4488016949 4.2472541025 0.032027921
7.4748191888 5.6638304343 0.0551792644
9.9165213233 4.2390225606 0.0058517627
9.9220586748 5.6621547321 0.0110808658
-3.7120484713 6.3733804169 0.0115632266
-3.7134922607 7.7983469668 0.0113988852
-1.2693224228 6.3748831703 0.041781161
-1.2680384833 7.7964676757 0.0416732693
1.1800814887 6.3669819516 0.1153362147
1.1796988963 7.8041000261 0.1155742282
6.2551359924 6.3708206665 0.1147002371
6.2555182053 7.8068482988 0.1149661174
8.700512138 6.3774021381 0.0304487988
8.7000882964 7.8002280619 0.0304218188
-4.9402104447 8.5154295505 0.0108481506
-4.9480217786 9.9408613052 0.0056558073
-2.489315788 8.512262359 0.0186848823
-2.4837609586 9.936238545 0.0119541224
-0.0402470136 8.5100811353 0.0624760231
-0.0151112846 9.9286666269 0.0373479452
2.4276800557 8.4523987629 0.1813846844
2.4753572612 9.8653533167 0.0879194635
5.009929182 8.4584263456 0.1864371622
4.9645242599 9.8717892069 0.0904865033
7.4741784028 8.5138469667 0.0552931117
7.449088766 9.9330020884 0.0319465468
-6.1856337621 10.652136332 0.0075385915
-6.1873805471 12.0761654743 0.0
-3.715344247 10.648809121 0.0033640581
-3.7151479725 12.0728181059 0.0013400928
-1.2480589115 10.6454859396 0.014622817
-1.2430948819 12.0647479234 0.0045758721
1.2369380572 10.6079157783 0.0379431362
1.2394165493 12.0318636679 0.0127611703
3.7190749623 10.5848145584 0.0742941557
3.7188589331 12.0062587615 0.0278540911
6.2038806391 10.61660931 0.0376531865
6.1992998036 12.0446565185 0.0138849193
3.7166961975 7.0893486296 0.8543529667