POSCAR-c3n4                             
  0.88000000000000000     
    13.8434242346000005   -0.1907404740000000    0.0000000000000000
    -6.9217121174000003   11.6951909939000007    0.0000000000000000
     0.0000000000000000    0.0000000000000000   15.0000000000000000
   C    N    Ge   C    O 
    24    32     1     1     1
Direct
  0.1041189464932084  0.2021576944461133  0.4029092975280589
  0.2878551435575989  0.4181733136748601  0.4316320725101847
  0.0803522420945800  0.3833415728610516  0.4021908839492384
  0.4531880279681806  0.0511518983832969  0.4899656046672827
  0.4848408592240796  0.4630383203223864  0.4042256678453702
  0.1371421856047493  0.0651347937740519  0.4826393553423641
  0.0569797055648467  0.6970994276850078  0.5328699896918766
  0.2822846348498756  0.8607321158427963  0.5435608684981369
  0.1344906571633202  0.9142397202631940  0.5806445503146521
  0.4338095218925685  0.5325809605921737  0.5592584993194837
  0.4394516469820833  0.8436882266222626  0.4784333725818333
  0.0225394461355080  0.5021179377643038  0.4915227520747733
  0.6328524424321683  0.2209110285277627  0.4212481167016554
  0.7763961719261354  0.4275290451070474  0.3137590136155433
  0.6352115854343028  0.4187055003307250  0.4245511669610788
  0.9355600746175050  0.0385638929276315  0.4802522326546355
  0.9431840561481996  0.4201622091070240  0.3230439403287590
  0.6393264310201138  0.0524397506249178  0.4842676768958596
  0.6098766471270912  0.6877202443318625  0.6319820440787879
  0.7997336686993521  0.8996016639790524  0.5976643284727272
  0.6050493183598464  0.8719293718737779  0.5633677849846513
  0.9197509113627950  0.5948990999214635  0.4004939912095264
 -0.0006071032268617  0.9688985392145721  0.6296561594320593
  0.6326765114894348  0.5405653715820516  0.5492859604862312
  0.1599815566920412  0.3338885624880197  0.4005135696733708
  0.1825002619144595  0.1566871086675367  0.4129594495013533
  0.3582183526796786 -0.0108927268413297  0.5570971254160264
  0.5567677723086575  0.4271432421512560  0.3592276053697782
  0.3711160737718583  0.4289017646468672  0.3643046749712759
  0.5125599358704873  0.1737327901443197  0.4606744841892130
  0.1702010580865111  0.9788294924832500  0.4939210530323447
  0.0329151474161300  0.0452742002350880  0.5441697353467300
  0.1576040711374975  0.8108286338401764  0.5809894764065470
  0.0562990603081480  0.5901994547105394  0.5650346882796070
  0.3104630779841873  0.4721266352160289  0.5271630947455338
  0.5021642600561976  0.7858642558954090  0.5084653738053421
  0.3098296877139131  0.7778782528151397  0.4963215645630139
  0.4779038845976608  0.6122083531372641  0.6378436983996979
  0.0759528042946493  0.4300506486173748  0.4947182960644365
  0.9585133827896896  0.5015349031212978  0.4090954087762928
  0.6855372160216263  0.3470188934364902  0.3801139567726164
  0.7073344582098262  0.1731007698858084  0.4470310589657116
  0.8188062398482987  0.9385562981085461  0.5001140260206610
  0.0271744394091995  0.3805408886488844  0.3160076184484975
  0.8468015616151876  0.3864184875060039  0.2633159881725472
  0.9740512894433325  0.1272083419348130  0.4077293661217161
  0.6698292855279845  0.0022467848793762  0.5614744932963901
  0.5041455237041835 -0.0277491406189547  0.4534934657855704
  0.6657688404384006  0.8214328630547789  0.6221097873535401
  0.6839677219956130  0.6363240638298413  0.6160870843934003
  0.8282793308063167  0.5625612781019872  0.3339275581881473
  0.0691309992855676  0.9180689061908655  0.6593151833386999
  0.8821906833758076  0.9217474947210051  0.6703943581552033
 -0.0122542376387262  0.7043982326122296  0.4586939714562591
  0.6800877595459530  0.4694238775397517  0.5155127250354163
  0.5169693267332365  0.5149198968798087  0.5016553152765821
  0.2400427274725747  0.5829470545047454  0.6030991857767455
  0.2485827096846180  0.5700378076252767  0.8534006562392223
  0.2346212855715488  0.4864824417163768  0.9045995723910931

  0.00000000E+00  0.00000000E+00  0.00000000E+00
  0.00000000E+00  0.00000000E+00  0.00000000E+00
  0.00000000E+00  0.00000000E+00  0.00000000E+00
  0.00000000E+00  0.00000000E+00  0.00000000E+00
  0.00000000E+00  0.00000000E+00  0.00000000E+00
  0.00000000E+00  0.00000000E+00  0.00000000E+00
  0.00000000E+00  0.00000000E+00  0.00000000E+00
  0.00000000E+00  0.00000000E+00  0.00000000E+00
  0.00000000E+00  0.00000000E+00  0.00000000E+00
  0.00000000E+00  0.00000000E+00  0.00000000E+00
  0.00000000E+00  0.00000000E+00  0.00000000E+00
  0.00000000E+00  0.00000000E+00  0.00000000E+00
  0.00000000E+00  0.00000000E+00  0.00000000E+00
  0.00000000E+00  0.00000000E+00  0.00000000E+00
  0.00000000E+00  0.00000000E+00  0.00000000E+00
  0.00000000E+00  0.00000000E+00  0.00000000E+00
  0.00000000E+00  0.00000000E+00  0.00000000E+00
  0.00000000E+00  0.00000000E+00  0.00000000E+00
  0.00000000E+00  0.00000000E+00  0.00000000E+00
  0.00000000E+00  0.00000000E+00  0.00000000E+00
  0.00000000E+00  0.00000000E+00  0.00000000E+00
  0.00000000E+00  0.00000000E+00  0.00000000E+00
  0.00000000E+00  0.00000000E+00  0.00000000E+00
  0.00000000E+00  0.00000000E+00  0.00000000E+00
  0.00000000E+00  0.00000000E+00  0.00000000E+00
  0.00000000E+00  0.00000000E+00  0.00000000E+00
  0.00000000E+00  0.00000000E+00  0.00000000E+00
  0.00000000E+00  0.00000000E+00  0.00000000E+00
  0.00000000E+00  0.00000000E+00  0.00000000E+00
  0.00000000E+00  0.00000000E+00  0.00000000E+00
  0.00000000E+00  0.00000000E+00  0.00000000E+00
  0.00000000E+00  0.00000000E+00  0.00000000E+00
  0.00000000E+00  0.00000000E+00  0.00000000E+00
  0.00000000E+00  0.00000000E+00  0.00000000E+00
  0.00000000E+00  0.00000000E+00  0.00000000E+00
  0.00000000E+00  0.00000000E+00  0.00000000E+00
  0.00000000E+00  0.00000000E+00  0.00000000E+00
  0.00000000E+00  0.00000000E+00  0.00000000E+00
  0.00000000E+00  0.00000000E+00  0.00000000E+00
  0.00000000E+00  0.00000000E+00  0.00000000E+00
  0.00000000E+00  0.00000000E+00  0.00000000E+00
  0.00000000E+00  0.00000000E+00  0.00000000E+00
  0.00000000E+00  0.00000000E+00  0.00000000E+00
  0.00000000E+00  0.00000000E+00  0.00000000E+00
  0.00000000E+00  0.00000000E+00  0.00000000E+00
  0.00000000E+00  0.00000000E+00  0.00000000E+00
  0.00000000E+00  0.00000000E+00  0.00000000E+00
  0.00000000E+00  0.00000000E+00  0.00000000E+00
  0.00000000E+00  0.00000000E+00  0.00000000E+00
  0.00000000E+00  0.00000000E+00  0.00000000E+00
  0.00000000E+00  0.00000000E+00  0.00000000E+00
  0.00000000E+00  0.00000000E+00  0.00000000E+00
  0.00000000E+00  0.00000000E+00  0.00000000E+00
  0.00000000E+00  0.00000000E+00  0.00000000E+00
  0.00000000E+00  0.00000000E+00  0.00000000E+00
  0.00000000E+00  0.00000000E+00  0.00000000E+00
  0.00000000E+00  0.00000000E+00  0.00000000E+00
  0.00000000E+00  0.00000000E+00  0.00000000E+00
  0.00000000E+00  0.00000000E+00  0.00000000E+00
