POSCAR-clean                            
   1.00000000000000     
    14.8598008643513602    0.0015859829557352    0.0000000000000000
    -7.4299004321257414   12.7560967618499923    0.0000000000000000
     0.0000000000000000    0.0000000000000000   15.0000000000000000
   C    N    C    Cr
     1     1    68     1
Direct
  0.0005687121716849  0.0008420869176544  0.4977015885605507
  0.0557599220413843  0.1114204006745243  0.4977646701823270
  0.1680395797516948  0.0018991059308143  0.4975252240666609
  0.2225146741214668  0.1130920574624557  0.4982291089657509
  0.3342698627816156  0.0021805568549617  0.4977426814302768
  0.3896771801421476  0.1134321025082566  0.4983781484826218
  0.5000565188035582  0.9998827073772931  0.4977303952247150
  0.5558679146311181  0.1113872308536703  0.4976498430493014
  0.6659539748200731  0.9979626949604964  0.4982493425587580
  0.7220537276011383  0.1092474521656569  0.4975397602835229
  0.8321238007774393  0.9977576552216186  0.4983916925498394
  0.8886090637370414  0.1089307669054323  0.4977255804955890
  0.9997497754465773  0.1650445052194348  0.4978157790283493
  0.0546714729723740  0.2759855371139476  0.4984807364943198
  0.1662280611900486  0.1675110171749095  0.4984105392507586
  0.2219242838967684  0.2789090222634532  0.5000635654626786
  0.3346109636379126  0.1703511789820434  0.4993733763700693
  0.3905855229852729  0.2813456631177683  0.5025341781520806
  0.5007811398075629  0.1681223844334994  0.4984169354452667
  0.5568572454876467  0.2796501214282862  0.5000518329504204
  0.6668398612199895  0.1655215721901699  0.4975241876637788
  0.7226123472121292  0.2766979735404887  0.4980364949636248
  0.8333135754740895  0.1650062069284566  0.4976071812794163
  0.8884583361763577  0.2762525964226980  0.4977537050466844
  0.9989747415428955  0.3315561732375756  0.4983134997082495
  0.0543882728636467  0.4434041593310957  0.4987827582149656
  0.1654419765719200  0.3329978121407361  0.4999978113036227
  0.2190758749742479  0.4437435300549921  0.5016663082203580
  0.3346317898202050  0.3370648670907063  0.5034550516852799
  0.3869158632761521  0.4479233635450137  0.5095622742372312
  0.5026417503508319  0.3378544854653901  0.5035833776522669
  0.5612896633529140  0.4485086635290867  0.5097830908158389
  0.6677059053657658  0.3328749141960829  0.4996567528808672
  0.7249855144404538  0.4439222904256180  0.5011980284736379
  0.8334409722058522  0.3322066884080184  0.4979114273605746
  0.8895953981655529  0.4437719062314307  0.4982601141194497
  0.0000126170215180  0.4996322355448163  0.4982924322616018
  0.0557661498170629  0.6113367742257749  0.4982814416302392
  0.1644427231296942  0.4997279707751254  0.5003071498256696
  0.2202519773651120  0.6111731644834663  0.5002999748407168
  0.3289576999617565  0.4990743696269547  0.5052088563054153
  0.3852761264598695  0.6117656830957631  0.5052248626438942
  0.6706055481515049  0.4993321560785296  0.5051672918762385
  0.7269307956701705  0.6119346919359194  0.5051845960525865
  0.8354276448401160  0.4998406024321486  0.4995511627452137
  0.8911696153520946  0.6113833223713444  0.4995495363481347
  0.0013219553100544  0.6675552909311433  0.4982446294691804
  0.0566673244187050  0.7792989408299289  0.4978985097429975
  0.1661246017992016  0.6672855402758094  0.4987675255128227
  0.2223124661067103  0.7789155626503053  0.4983185404144899
  0.3308371092686991  0.6670939118412382  0.5016843615485881
  0.3881360221202482  0.7782994978605019  0.5000114503188804
  0.4946256974756398  0.6625762563264586  0.5096187936924942
  0.5532327730785106  0.7733106033278696  0.5033810938946388
  0.6686937375394120  0.6630273408806739  0.5099549712863221
  0.7209902762678142  0.7737948125212852  0.5035521267022157
  0.8366455707590121  0.6673273191423740  0.5012056624648017
  0.8905751221517904  0.7785750452063733  0.4996512518656556
  0.0012678384516983  0.8350627143508099  0.4980238993964344
  0.0569634907928078  0.9466935502520171  0.4975212441897099
  0.1673636899285562  0.8347790293460395  0.4977457477160489
  0.2231910150146841  0.9464088939866574  0.4976109309497784
  0.3332576954137949  0.8344990626032655  0.4984963817609130
  0.3892239293173915  0.9457558152048037  0.4978265056983261
  0.4990051811669409  0.8315319911174144  0.5000507164178248
  0.5549854243724023  0.9431564946800933  0.4983719164504684
  0.6651307585226970  0.8297058634104829  0.5024741407029965
  0.7208226242544558  0.9411213315511355  0.4993790020179436
  0.8335822447343998  0.8321727320378305  0.5000313162618720
  0.8892428800679469  0.9441182150667096  0.4984467158101063
  0.5279645951969338  0.5556916658547615  0.5544581975683598
 
  0.00000000E+00  0.00000000E+00  0.00000000E+00
  0.00000000E+00  0.00000000E+00  0.00000000E+00
  0.00000000E+00  0.00000000E+00  0.00000000E+00
  0.00000000E+00  0.00000000E+00  0.00000000E+00
  0.00000000E+00  0.00000000E+00  0.00000000E+00
  0.00000000E+00  0.00000000E+00  0.00000000E+00
  0.00000000E+00  0.00000000E+00  0.00000000E+00
  0.00000000E+00  0.00000000E+00  0.00000000E+00
  0.00000000E+00  0.00000000E+00  0.00000000E+00
  0.00000000E+00  0.00000000E+00  0.00000000E+00
  0.00000000E+00  0.00000000E+00  0.00000000E+00
  0.00000000E+00  0.00000000E+00  0.00000000E+00
  0.00000000E+00  0.00000000E+00  0.00000000E+00
  0.00000000E+00  0.00000000E+00  0.00000000E+00
  0.00000000E+00  0.00000000E+00  0.00000000E+00
  0.00000000E+00  0.00000000E+00  0.00000000E+00
  0.00000000E+00  0.00000000E+00  0.00000000E+00
  0.00000000E+00  0.00000000E+00  0.00000000E+00
  0.00000000E+00  0.00000000E+00  0.00000000E+00
  0.00000000E+00  0.00000000E+00  0.00000000E+00
  0.00000000E+00  0.00000000E+00  0.00000000E+00
  0.00000000E+00  0.00000000E+00  0.00000000E+00
  0.00000000E+00  0.00000000E+00  0.00000000E+00
  0.00000000E+00  0.00000000E+00  0.00000000E+00
  0.00000000E+00  0.00000000E+00  0.00000000E+00
  0.00000000E+00  0.00000000E+00  0.00000000E+00
  0.00000000E+00  0.00000000E+00  0.00000000E+00
  0.00000000E+00  0.00000000E+00  0.00000000E+00
  0.00000000E+00  0.00000000E+00  0.00000000E+00
  0.00000000E+00  0.00000000E+00  0.00000000E+00
  0.00000000E+00  0.00000000E+00  0.00000000E+00
  0.00000000E+00  0.00000000E+00  0.00000000E+00
  0.00000000E+00  0.00000000E+00  0.00000000E+00
  0.00000000E+00  0.00000000E+00  0.00000000E+00
  0.00000000E+00  0.00000000E+00  0.00000000E+00
  0.00000000E+00  0.00000000E+00  0.00000000E+00
  0.00000000E+00  0.00000000E+00  0.00000000E+00
  0.00000000E+00  0.00000000E+00  0.00000000E+00
  0.00000000E+00  0.00000000E+00  0.00000000E+00
  0.00000000E+00  0.00000000E+00  0.00000000E+00
  0.00000000E+00  0.00000000E+00  0.00000000E+00
  0.00000000E+00  0.00000000E+00  0.00000000E+00
  0.00000000E+00  0.00000000E+00  0.00000000E+00
  0.00000000E+00  0.00000000E+00  0.00000000E+00
  0.00000000E+00  0.00000000E+00  0.00000000E+00
  0.00000000E+00  0.00000000E+00  0.00000000E+00
  0.00000000E+00  0.00000000E+00  0.00000000E+00
  0.00000000E+00  0.00000000E+00  0.00000000E+00
  0.00000000E+00  0.00000000E+00  0.00000000E+00
  0.00000000E+00  0.00000000E+00  0.00000000E+00
  0.00000000E+00  0.00000000E+00  0.00000000E+00
  0.00000000E+00  0.00000000E+00  0.00000000E+00
  0.00000000E+00  0.00000000E+00  0.00000000E+00
  0.00000000E+00  0.00000000E+00  0.00000000E+00
  0.00000000E+00  0.00000000E+00  0.00000000E+00
  0.00000000E+00  0.00000000E+00  0.00000000E+00
  0.00000000E+00  0.00000000E+00  0.00000000E+00
  0.00000000E+00  0.00000000E+00  0.00000000E+00
  0.00000000E+00  0.00000000E+00  0.00000000E+00
  0.00000000E+00  0.00000000E+00  0.00000000E+00
  0.00000000E+00  0.00000000E+00  0.00000000E+00
  0.00000000E+00  0.00000000E+00  0.00000000E+00
  0.00000000E+00  0.00000000E+00  0.00000000E+00
  0.00000000E+00  0.00000000E+00  0.00000000E+00
  0.00000000E+00  0.00000000E+00  0.00000000E+00
  0.00000000E+00  0.00000000E+00  0.00000000E+00
  0.00000000E+00  0.00000000E+00  0.00000000E+00
  0.00000000E+00  0.00000000E+00  0.00000000E+00
  0.00000000E+00  0.00000000E+00  0.00000000E+00
  0.00000000E+00  0.00000000E+00  0.00000000E+00
  0.00000000E+00  0.00000000E+00  0.00000000E+00
