POSCAR-clean
1.0
14.858866393715637 0.0008149543821254 0.0
-7.429433196807883 12.755795406463589 0.0
0.0 0.0 15.0
C N C Cr
65 1 4 1
Cartesian
7.428917005 12.7550692246 0.0018169659
0.0004143308 1.4203125845 0.0028868348
2.4839933159 0.0255900336 0.0002156426
2.4801181805 1.4464017559 0.0108932715
4.9625767985 0.0269086297 0.0031834221
4.9571966499 1.4444362874 0.0129304123
0.013403894 12.7474984904 0.0039706009
7.4410264115 1.4112040024 0.0025465987
2.4673878334 12.7222057038 0.0108045331
9.9006746983 1.3832785974 0.0003542863
4.9436466065 12.7297915221 0.0125522517
12.3783217265 1.392569266 0.0032317436
13.6145414127 2.1118032897 0.004388311
-1.2487140502 3.5296249609 0.014421903
1.2388545229 2.1443954974 0.0124059578
1.236524428 3.5685465597 0.0383639811
3.7180901364 2.1708947136 0.0280890493
3.7171682781 3.5887421248 0.0745288008
6.1987292784 2.1346369958 0.0133954562
6.1995057067 3.5620219269 0.0375492743
8.67653234 2.1136112011 0.0001519228
8.6805789546 3.5277686785 0.0073684776
11.1427906033 2.0952072305 0.0014307805
11.1431535094 3.5200806153 0.0035099742
12.3761476953 4.2362890395 0.011836426
-2.4873721468 5.6617402943 0.018508468
-0.0148009061 4.2474537951 0.037621256
-0.0393174288 5.6643934602 0.064222388
2.4731770915 4.3105996683 0.087989809
2.4281062366 5.7248118906 0.1745494439
4.9628672446 4.3064311832 0.0901105114
5.0077505507 5.71994685 0.1830618087
7.4473292025 4.2447446905 0.0320414457
7.4722334849 5.6614769645 0.0569462303
9.9155159409 4.2368682479 0.0057003524
9.9201924837 5.6604110212 0.0107369236
-3.7114817305 6.3758006012 0.0109199335
-3.711557538 7.7976529396 0.0111150802
-1.2660997242 6.3790804848 0.0424738294
-1.2652499389 7.8024477598 0.0418435442
1.1801833315 6.372432279 0.1162154071
1.1778525525 7.8099120704 0.1156102871
6.2535016396 6.3683096478 0.1169907911
6.2523881005 7.8057410647 0.1156679646
8.7008083084 6.3755942313 0.030818768
8.700229958 7.7983158282 0.0307239094
-4.9378299386 8.5128975455 0.0110411351
-4.9438975355 9.9372592205 0.0057486849
-2.4849363339 8.5120735782 0.0187089735
-2.4788716348 9.9373645868 0.0116472827
-0.033941622 8.5193229019 0.0615119155
-0.0122196749 9.9407758116 0.0363802322
2.4197227471 8.4653475807 0.1829601598
2.46569199 9.8794088391 0.0909553719
5.0031483946 8.4496319061 0.179828479
4.956151268 9.8659798772 0.0894084948
7.4718108316 8.5125564391 0.0557810355
7.4469480907 9.9298645601 0.0317376888
-6.1786287131 10.6451510372 0.0074777922
-6.1831760139 12.0633622506 0.0
-3.7112360636 10.6514480047 0.0032212064
-3.7068102619 12.0712288767 0.0012537091
-1.2484130308 10.6423161932 0.0139841698
-1.2291890198 12.0594929083 0.0046114448
1.2358579948 10.6212901757 0.0390427132
1.2377303409 12.0312462956 0.0128347096
3.7190376431 10.5846741805 0.0742826644
3.7035430216 12.0000372725 0.0272943548
6.194854547 10.6091537661 0.0376318638
6.1875486171 12.030997272 0.0134917097
3.7143510412 7.0912420649 0.8553823228