POSCAR-clean
1.0
14.8480619358 -3.51718e-05 0.0
-7.4240309679 12.7474195851 0.0
0.0 0.0 15.0
C N C Cr C O
17 1 52 1 1 1
Cartesian
-7.4200415524 12.7454537552 7.2533549069
0.0054869046 1.4226927583 7.2544627981
2.4861913448 0.032778922 7.2519656302
2.4855964122 1.4584166522 7.2656532562
4.941503135 0.0326313298 7.2548034123
4.942160915 1.4582496934 7.2675294927
-0.0003027019 12.7452023172 7.254635589
7.4222173272 1.4224343792 7.2534350363
2.4780350917 12.7215987855 7.2625531469
9.9027421632 1.3939620496 7.2513280901
4.9497572166 12.7217456385 7.2642927751
12.3730590871 1.3940729587 7.2541657484
13.6102121895 2.1137726075 7.2555012889
-1.2372100993 3.5289654965 7.2662661063
1.2373572319 2.1467764167 7.2652407204
1.2497679681 3.5633037167 7.2873822273
3.7139001704 2.1788170438 7.2853957683
3.7139910381 3.5883019958 7.3261258174
6.1903867045 2.1465653313 7.2657567005
6.1780183697 3.5632111185 7.2865203522
8.6655297105 2.1136050412 7.251273904
8.6648454089 3.5287842823 7.2596935371
11.1378592918 2.1041118569 7.252570941
11.1378340877 3.5253866302 7.2548099916
12.3710513056 4.2370909835 7.2631738847
-2.4836456748 5.6571070311 7.2694900933
-0.0033008867 4.2446883491 7.2888369012
-0.0292683621 5.6591506908 7.3152490014
2.4904636267 4.3082375413 7.3337440026
2.4585225751 5.7110809998 7.4256062863
4.9375362321 4.3085210097 7.3353838283
4.9694702234 5.7114532715 7.4295678892
7.4309852721 4.244558695 7.28343922
7.4567692688 5.6591106982 7.3081151528
9.9045765934 4.2370281976 7.2574894172
9.911119924 5.6570597004 7.26233401
11.1377569355 6.3702977221 7.2624546137
-3.7103136548 7.7934680566 7.2617362831
-1.2594228414 6.3715405721 7.2933137
-1.2615274429 7.789674749 7.2941666634
1.1902552225 6.357797985 7.3652890823
1.1866810111 7.7873073863 7.3676016777
6.2376522442 6.3577992814 7.3644754565
6.2412622443 7.7872812609 7.3667745294
8.6868753893 6.3715293179 7.2826557914
8.6889662731 7.7896237511 7.2835063611
-4.9355135908 8.5077606956 7.2616560127
-4.9396044026 9.9289153231 7.2569561622
-2.4850928025 8.5077162013 7.2689399326
-2.4809302461 9.9288262324 7.2627241886
-0.0343696049 8.4995492899 7.3186954178
-0.014288548 9.9184108945 7.2901864742
2.4392123878 8.4391842836 7.4272233088
2.4758696365 9.8528315997 7.3373775263
4.9887830209 8.4387242214 7.431165148
4.9520772777 9.8525104862 7.3393327401
7.4618929016 8.4995583957 7.3115923517
7.4419532021 9.9185177382 7.2848406038
-6.1751805792 10.6389481007 7.2590480216
-6.1758288128 12.0583778728 7.2510407643
-3.7102597281 10.6424101907 7.2545639157
-3.7102224552 12.0671217263 7.2526596301
-1.2452835318 10.6387687377 7.2656019456
-1.2445534019 12.0581609698 7.2553235099
1.2360800648 10.5968277692 7.289021043
1.2352422004 12.0203230413 7.264408617
3.7139990625 10.5765596668 7.3259017771
3.7139397379 11.9979197937 7.2802985152
6.1916761732 10.5968578857 7.2883943397
6.1925295254 12.0204689155 7.2647941883
3.7113300428 7.086713529 8.1312651987
3.7113300428 7.086713529 14.1112651987
3.3903160962 6.3608698363 14.9566023824