POSCAR-clean                            
   1.0000000000000000     
    14.8530717797000005    0.0235212199000000    0.0000000000000000
    -7.4265358898000002   12.7416551812000005    0.0000000000000000
     0.0000000000000000    0.0000000000000000   15.0000000000000000
   C    N    C    Cr   C    O 
    28     1    41     1     1     1
Direct
  0.0006765516781015  0.0003920889254087  0.4893209626035324
  0.0560561048546456  0.1118535614080876  0.4893340525278617
  0.1682815921618128  0.0020881184457403  0.4899491092693882
  0.2234483372668168  0.1130936690897032  0.4913554911536487
  0.3343766958775689  0.0023216639711969  0.4900906654905846
  0.3899120938191140  0.1140418016192972  0.4914362867581032
  0.5000757568979138 -0.0001904293260409  0.4899886727852507
  0.5555444111720999  0.1115259218513460  0.4898822711969735
  0.6657615871447431  0.9979046462347604  0.4908773560478548
  0.7212844191972863  0.1092757585191968  0.4896444776041435
  0.8323705826658769  0.9980935192428241  0.4908941467197693
  0.8875876676921043  0.1092562047423562  0.4896849693929390
  0.9990700931330529  0.1655697548447941  0.4894880339007777
  0.0543530453133291  0.2763751968335236  0.4902296360988819
  0.1678033555799417  0.1683083903948203  0.4908022277892600
  0.2227180462147927  0.2791502302911479  0.4931726396285844
  0.3346611919479338  0.1708851266957419  0.4933631357853508
  0.3896283540756390  0.2821929594463724  0.4978368164896900
  0.5006316413067440  0.1686717875356368  0.4912972976861113
  0.5556452451530048  0.2800871950952827  0.4933820143379425
  0.6662335134154360  0.1658334340025468  0.4896567720276592
  0.7218029106353616  0.2771033318727217  0.4902978528711073
  0.8323165760162927  0.1650201397927748  0.4895655657343175
  0.8879834538155171  0.2764568765534222  0.4896414160150623
  0.9989412844483394  0.3321817800713041  0.4900348876974521
  0.0542581499644907  0.4436099454771829  0.4904054725113323
  0.1655500595838447  0.3325246108076462  0.4919878729562487
  0.2189806497825472  0.4434558025213601  0.4928801861392535
  0.3333397326568344  0.3369237515724786  0.4995306444409496
  0.3857024202180173  0.4454031144359600  0.5080417408251848
  0.5012478269893437  0.3390673308842617  0.4980467753612020
  0.5607907504308858  0.4498786550720494  0.5039964943877503
  0.6668242454044926  0.3333950847351488  0.4921786277736208
  0.7244655610902044  0.4446784362561343  0.4933949751158613
  0.8329883571221497  0.3325161760033876  0.4900824803138482
  0.8892866976477785  0.4439758122485343  0.4903903144496863
 -0.0000856909875693  0.4998099781917645  0.4902189944841109
  0.0560909252000251  0.6113404810202742  0.4902111903028216
  0.1644972772636984  0.4994778861565927  0.4915119746261925
  0.2207337775306370  0.6108081071560769  0.4922061262510751
  0.3279408477925586  0.4970764387410158  0.4983273458072853
  0.3854245241185690  0.6098794153219845  0.4983636821348609
  0.6707112706081103  0.5006004556632567  0.4978332640122348
  0.7275434533425859  0.6129063129834265  0.4994822768505891
  0.8352288749478759  0.5002789949577809  0.4915212057661807
  0.8913643821145846  0.6116203339255636  0.4912339363582778
  0.0017261110589773  0.6675343416560982  0.4901553011464604
  0.0572535995559186  0.7790548031580267  0.4899551635624105
  0.1666334554096709  0.6671252864124048  0.4907860908746424
  0.2229109606667113  0.7787339445090660  0.4905035145301282
  0.3313440072916625  0.6660693708583576  0.4943937015695189
  0.3884677560783811  0.7774791042706345  0.4928905829505745
  0.4950038532707493  0.6609501437702329  0.5039211918228711
  0.5533698450940703  0.7722809958645127  0.4983867721051080
  0.6699811590492287  0.6645717261243688  0.5092371989429081
  0.7220822406566592  0.7744940090597313  0.5001568107345803
  0.8370014803410298  0.6677708908043611  0.4934122188591351
  0.8911665710528683  0.7788908180964821  0.4922387783525078
  0.0019014023666310  0.8347389167415876  0.4901840114743574
  0.0570030317036580  0.9458875838178848  0.4895454233259851
  0.1680472137338124  0.8348312030241863  0.4898424928251962
  0.2236530687796860  0.9463579272815550  0.4898857918255589
  0.3337474245028648  0.8340870328404351  0.4908079732346884
  0.3893318527589479  0.9455310895695856  0.4900103864917985
  0.4992584555817527  0.8308415422895326  0.4936818573618522
  0.5548399913592201  0.9427115868175608  0.4911870972225076
  0.6654785318039765  0.8298185621075540  0.4979364852939256
  0.7206683926774041  0.9410836975154467  0.4927768934149421
  0.8339626434755844  0.8325100511623086  0.4933959075008046
  0.8891188058985522  0.9437560640726645  0.4906088003359908
  0.5288810281764388  0.5545519709137441  0.5519158532635605
  0.5088831428607234  0.5331507356017129  0.6814014476964280
  0.4951948415355014  0.5194796017402863  0.7577099147807730

  0.00000000E+00  0.00000000E+00  0.00000000E+00
  0.00000000E+00  0.00000000E+00  0.00000000E+00
  0.00000000E+00  0.00000000E+00  0.00000000E+00
  0.00000000E+00  0.00000000E+00  0.00000000E+00
  0.00000000E+00  0.00000000E+00  0.00000000E+00
  0.00000000E+00  0.00000000E+00  0.00000000E+00
  0.00000000E+00  0.00000000E+00  0.00000000E+00
  0.00000000E+00  0.00000000E+00  0.00000000E+00
  0.00000000E+00  0.00000000E+00  0.00000000E+00
  0.00000000E+00  0.00000000E+00  0.00000000E+00
  0.00000000E+00  0.00000000E+00  0.00000000E+00
  0.00000000E+00  0.00000000E+00  0.00000000E+00
  0.00000000E+00  0.00000000E+00  0.00000000E+00
  0.00000000E+00  0.00000000E+00  0.00000000E+00
  0.00000000E+00  0.00000000E+00  0.00000000E+00
  0.00000000E+00  0.00000000E+00  0.00000000E+00
  0.00000000E+00  0.00000000E+00  0.00000000E+00
  0.00000000E+00  0.00000000E+00  0.00000000E+00
  0.00000000E+00  0.00000000E+00  0.00000000E+00
  0.00000000E+00  0.00000000E+00  0.00000000E+00
  0.00000000E+00  0.00000000E+00  0.00000000E+00
  0.00000000E+00  0.00000000E+00  0.00000000E+00
  0.00000000E+00  0.00000000E+00  0.00000000E+00
  0.00000000E+00  0.00000000E+00  0.00000000E+00
  0.00000000E+00  0.00000000E+00  0.00000000E+00
  0.00000000E+00  0.00000000E+00  0.00000000E+00
  0.00000000E+00  0.00000000E+00  0.00000000E+00
  0.00000000E+00  0.00000000E+00  0.00000000E+00
  0.00000000E+00  0.00000000E+00  0.00000000E+00
  0.00000000E+00  0.00000000E+00  0.00000000E+00
  0.00000000E+00  0.00000000E+00  0.00000000E+00
  0.00000000E+00  0.00000000E+00  0.00000000E+00
  0.00000000E+00  0.00000000E+00  0.00000000E+00
  0.00000000E+00  0.00000000E+00  0.00000000E+00
  0.00000000E+00  0.00000000E+00  0.00000000E+00
  0.00000000E+00  0.00000000E+00  0.00000000E+00
  0.00000000E+00  0.00000000E+00  0.00000000E+00
  0.00000000E+00  0.00000000E+00  0.00000000E+00
  0.00000000E+00  0.00000000E+00  0.00000000E+00
  0.00000000E+00  0.00000000E+00  0.00000000E+00
  0.00000000E+00  0.00000000E+00  0.00000000E+00
  0.00000000E+00  0.00000000E+00  0.00000000E+00
  0.00000000E+00  0.00000000E+00  0.00000000E+00
  0.00000000E+00  0.00000000E+00  0.00000000E+00
  0.00000000E+00  0.00000000E+00  0.00000000E+00
  0.00000000E+00  0.00000000E+00  0.00000000E+00
  0.00000000E+00  0.00000000E+00  0.00000000E+00
  0.00000000E+00  0.00000000E+00  0.00000000E+00
  0.00000000E+00  0.00000000E+00  0.00000000E+00
  0.00000000E+00  0.00000000E+00  0.00000000E+00
  0.00000000E+00  0.00000000E+00  0.00000000E+00
  0.00000000E+00  0.00000000E+00  0.00000000E+00
  0.00000000E+00  0.00000000E+00  0.00000000E+00
  0.00000000E+00  0.00000000E+00  0.00000000E+00
  0.00000000E+00  0.00000000E+00  0.00000000E+00
  0.00000000E+00  0.00000000E+00  0.00000000E+00
  0.00000000E+00  0.00000000E+00  0.00000000E+00
  0.00000000E+00  0.00000000E+00  0.00000000E+00
  0.00000000E+00  0.00000000E+00  0.00000000E+00
  0.00000000E+00  0.00000000E+00  0.00000000E+00
  0.00000000E+00  0.00000000E+00  0.00000000E+00
  0.00000000E+00  0.00000000E+00  0.00000000E+00
  0.00000000E+00  0.00000000E+00  0.00000000E+00
  0.00000000E+00  0.00000000E+00  0.00000000E+00
  0.00000000E+00  0.00000000E+00  0.00000000E+00
  0.00000000E+00  0.00000000E+00  0.00000000E+00
  0.00000000E+00  0.00000000E+00  0.00000000E+00
  0.00000000E+00  0.00000000E+00  0.00000000E+00
  0.00000000E+00  0.00000000E+00  0.00000000E+00
  0.00000000E+00  0.00000000E+00  0.00000000E+00
  0.00000000E+00  0.00000000E+00  0.00000000E+00
  0.00000000E+00  0.00000000E+00  0.00000000E+00
  0.00000000E+00  0.00000000E+00  0.00000000E+00
