POSCAR-c3n4                             
  0.85999999999999999     
    13.8434242346000005   -0.1907404740000000    0.0000000000000000
    -6.9217121174000003   11.6951909938999989    0.0000000000000000
     0.0000000000000000    0.0000000000000000   15.0000000000000000
   C    N    Ge   C    O 
    24    32     1     1     1
Direct
  0.0912933623999222  0.1896341305097951  0.3425606503876265
  0.2864498467304546  0.4154202328380438  0.3495844564146735
  0.0688925669617714  0.3719041384635847  0.3296608287089084
  0.4778404646000924  0.0017076321907567  0.4941991449249778
  0.4627487248292212  0.4121461944856792  0.3939441321144132
  0.1215699208796963  0.0472611071799391  0.4327169939405879
  0.0670262082454590  0.6903468185347719  0.4990591073384734
  0.2846283388293901  0.8458688214464524  0.5612879921239503
  0.1326624643267830  0.9104954407206001  0.5458773573280324
  0.4183174813584096  0.5715277852802373  0.4710341304095407
  0.4536276167231246  0.9081704613936141  0.6652765458378572
  0.0468050572191149  0.5034930641948306  0.4375936374714157
  0.6578320583829717  0.2048000538047493  0.4711505470730805
  0.7490090354863329  0.3961078315875689  0.3381055151675116
  0.6177314964565416  0.3853650536133583  0.4647684910667661
  0.9150964850067116  0.0379875281709222  0.4378137843443674
  0.9215314765635478  0.4130701120597660  0.2823913713227155
  0.6651695882608617  0.0989694601721526  0.6133569057913150
  0.5596619572853399  0.7003018970193904  0.6126946893612626
  0.7822320454751913  0.9184723574916027  0.5707289911971456
  0.6364820683919851  0.9213335409727952  0.6863234029445380
  0.9099765047007586  0.5861648657673854  0.3790480042084696
  0.9830909183871827  0.9570759634460336  0.5844195299525048
  0.5873766384686270  0.5329903180053165  0.5502177696923970
  0.1544737670933514  0.3242205954453951  0.3139469425681632
  0.1644163830788118  0.1357596378358437  0.3569237161529246
  0.3550782204788997  0.9028588645417333  0.4754210540361518
  0.5280312307581043  0.3505577742332440  0.3901191327980841
  0.3670595784383511  0.3751964313871731  0.3245088855794386
  0.5504569391368758  0.1014384690812185  0.4283825351609293
  0.1806168308133625  0.9829128780843304  0.4611561336934496
  0.0064554795592369  0.0151142068590812  0.4865932727455073
  0.1505050478329965  0.8014893407873900  0.5557997776280431
  0.0928384968537688  0.5923242903385268  0.5129514558220448
  0.3142863847234947  0.5227752025747189  0.4080465363104769
  0.5119489955932439  0.8631896362856747  0.7289083893224514
  0.3243004998309701  0.8420409799815187  0.6564210068765562
  0.4559314980124065  0.6738867042081144  0.5377639152582266
  0.0707035246035024  0.4053479715743437  0.4293059396305053
  0.9744367740073900  0.5156583061787439  0.3578693609835174
  0.6988223403715931  0.3340934594330241  0.4297405312384208
  0.7235389390686585  0.2112640208599184  0.5565166559375015
  0.7901949274831316  0.9682112545414053  0.4760781850434757
  0.0044369532456047  0.3758489067697879  0.2484930815526879
  0.7937552181508380  0.3459047875776421  0.2669157562051488
  0.9595180945779042  0.1282497115766607  0.3624812731405628
  0.7192712026106096  0.0573528034461598  0.6805053214416082
  0.5285799839571971  0.0093583516075801  0.5943823760235145
  0.6559753639122365  0.8462684903337964  0.6220738393484087
  0.6230243687090009  0.6284957826139692  0.6160940954802819
  0.7889801176952884  0.5307385741695257  0.3420709326373589
  0.0596602284000371  0.9153569036043903  0.6212450755164840
  0.8727379088490591  0.9242926838076256  0.6336091892102267
  0.9746014116117223  0.6926417112594034  0.4415855699779007
  0.6467880495383661  0.4597708668428029  0.5470732134809368
  0.4880524655217306  0.5042322167357076  0.4721331134152920
  0.3920930310542231  0.6445292221299743  0.6974978760796714
  0.3759492769640696  0.5715641333027112  0.9396150944522622
  0.3155494230874801  0.5317625322867885  0.0139567860025865

  0.00000000E+00  0.00000000E+00  0.00000000E+00
  0.00000000E+00  0.00000000E+00  0.00000000E+00
  0.00000000E+00  0.00000000E+00  0.00000000E+00
  0.00000000E+00  0.00000000E+00  0.00000000E+00
  0.00000000E+00  0.00000000E+00  0.00000000E+00
  0.00000000E+00  0.00000000E+00  0.00000000E+00
  0.00000000E+00  0.00000000E+00  0.00000000E+00
  0.00000000E+00  0.00000000E+00  0.00000000E+00
  0.00000000E+00  0.00000000E+00  0.00000000E+00
  0.00000000E+00  0.00000000E+00  0.00000000E+00
  0.00000000E+00  0.00000000E+00  0.00000000E+00
  0.00000000E+00  0.00000000E+00  0.00000000E+00
  0.00000000E+00  0.00000000E+00  0.00000000E+00
  0.00000000E+00  0.00000000E+00  0.00000000E+00
  0.00000000E+00  0.00000000E+00  0.00000000E+00
  0.00000000E+00  0.00000000E+00  0.00000000E+00
  0.00000000E+00  0.00000000E+00  0.00000000E+00
  0.00000000E+00  0.00000000E+00  0.00000000E+00
  0.00000000E+00  0.00000000E+00  0.00000000E+00
  0.00000000E+00  0.00000000E+00  0.00000000E+00
  0.00000000E+00  0.00000000E+00  0.00000000E+00
  0.00000000E+00  0.00000000E+00  0.00000000E+00
  0.00000000E+00  0.00000000E+00  0.00000000E+00
  0.00000000E+00  0.00000000E+00  0.00000000E+00
  0.00000000E+00  0.00000000E+00  0.00000000E+00
  0.00000000E+00  0.00000000E+00  0.00000000E+00
  0.00000000E+00  0.00000000E+00  0.00000000E+00
  0.00000000E+00  0.00000000E+00  0.00000000E+00
  0.00000000E+00  0.00000000E+00  0.00000000E+00
  0.00000000E+00  0.00000000E+00  0.00000000E+00
  0.00000000E+00  0.00000000E+00  0.00000000E+00
  0.00000000E+00  0.00000000E+00  0.00000000E+00
  0.00000000E+00  0.00000000E+00  0.00000000E+00
  0.00000000E+00  0.00000000E+00  0.00000000E+00
  0.00000000E+00  0.00000000E+00  0.00000000E+00
  0.00000000E+00  0.00000000E+00  0.00000000E+00
  0.00000000E+00  0.00000000E+00  0.00000000E+00
  0.00000000E+00  0.00000000E+00  0.00000000E+00
  0.00000000E+00  0.00000000E+00  0.00000000E+00
  0.00000000E+00  0.00000000E+00  0.00000000E+00
  0.00000000E+00  0.00000000E+00  0.00000000E+00
  0.00000000E+00  0.00000000E+00  0.00000000E+00
  0.00000000E+00  0.00000000E+00  0.00000000E+00
  0.00000000E+00  0.00000000E+00  0.00000000E+00
  0.00000000E+00  0.00000000E+00  0.00000000E+00
  0.00000000E+00  0.00000000E+00  0.00000000E+00
  0.00000000E+00  0.00000000E+00  0.00000000E+00
  0.00000000E+00  0.00000000E+00  0.00000000E+00
  0.00000000E+00  0.00000000E+00  0.00000000E+00
  0.00000000E+00  0.00000000E+00  0.00000000E+00
  0.00000000E+00  0.00000000E+00  0.00000000E+00
  0.00000000E+00  0.00000000E+00  0.00000000E+00
  0.00000000E+00  0.00000000E+00  0.00000000E+00
  0.00000000E+00  0.00000000E+00  0.00000000E+00
  0.00000000E+00  0.00000000E+00  0.00000000E+00
  0.00000000E+00  0.00000000E+00  0.00000000E+00
  0.00000000E+00  0.00000000E+00  0.00000000E+00
  0.00000000E+00  0.00000000E+00  0.00000000E+00
  0.00000000E+00  0.00000000E+00  0.00000000E+00
