POSCAR-c3n4                             
  0.85999999999999999     
    13.8434242346000005   -0.1907404740000000    0.0000000000000000
    -6.9217121174000003   11.6951909938999989    0.0000000000000000
     0.0000000000000000    0.0000000000000000   15.0000000000000000
   C    N    Ge   C    O 
    24    32     1     1     1
Direct
  0.0911476374066651  0.1894208299387684  0.3425717761580644
  0.2865305147260305  0.4153223776994768  0.3495133725555719
  0.0686176245589267  0.3716561370193240  0.3295586538136714
  0.4781019362363335  0.0016372209741634  0.4942244661149340
  0.4629940909666446  0.4124082160323524  0.3938146914067222
  0.1214461674938708  0.0471589030570221  0.4325772066029947
  0.0669277317844552  0.6903363914153894  0.4991765580548083
  0.2849149354796086  0.8458720532286380  0.5612953293723930
  0.1327164651770031  0.9104239132271907  0.5458695887679418
  0.4183137725416031  0.5715346229010118  0.4709291845265173
  0.4535752905227298  0.9081853037126675  0.6651495102927077
  0.0468763109564050  0.5035741790999413  0.4375316493165522
  0.6579089221119752  0.2048463387200289  0.4712567588849995
  0.7489595748649702  0.3960732922499852  0.3380557655989413
  0.6180628650858019  0.3854500117142056  0.4648774883061105
  0.9148940959521331  0.0375997466342095  0.4376870558256157
  0.9215178592982927  0.4129778058931696  0.2825620515184361
  0.6649151099276307  0.0987256684644488  0.6132688936961059
  0.5595457559943802  0.7004685063912232  0.6124472530640384
  0.7822044635485007  0.9183634245452207  0.5707296936631383
  0.6364255214651160  0.9213970239781921  0.6864371382985544
  0.9102748564109415  0.5862261012276181  0.3791796996670599
 -0.0169299098511646  0.9570707072836711  0.5843505559649421
  0.5875826416936930  0.5332325209458854  0.5504232847593236
  0.1544616718423925  0.3242702436361705  0.3138230710444278
  0.1641953692313133  0.1355674747497421  0.3568611247665934
  0.3550654268434818 -0.0968385339711760  0.4753711713914275
  0.5283266657807532  0.3508095395905825  0.3903411182075827
  0.3673971037030789  0.3752826944297732  0.3242410624591260
  0.5505031400318452  0.1015460895086152  0.4286606853504329
  0.1803219138798130  0.9828317951277747  0.4612689104634510
  0.0063040504981022  0.0148366024219824  0.4863521925990763
  0.1505019173227253  0.8013599048203228  0.5560738638989167
  0.0927096336118433  0.5922512536114624  0.5129422177018055
  0.3142332973531849  0.5225330686847002  0.4080438541498477
  0.5117377987236230  0.8633046096844416  0.7287315150279873
  0.3244226244795912  0.8421437852851954  0.6563651065478578
  0.4555187448067932  0.6739323059737613  0.5377439264877157
  0.0710154065457254  0.4057491428752003  0.4291004545878447
  0.9744426401588405  0.5156789937410964  0.3579976923092603
  0.6992164069862883  0.3343153526518008  0.4299477511398699
  0.7234836102712632  0.2111648431942647  0.5566330038372096
  0.7901220327824320  0.9682368989118931  0.4759688333308988
  0.0041226360910584  0.3755288497859584  0.2484922414853027
  0.7938570880501777  0.3457149673871553  0.2671827266660106
  0.9595712995704667  0.1281246729380890  0.3625136314134171
  0.7191649384507507  0.0574789885239470  0.6804511592098155
  0.5285917829747451  0.0092409881722287  0.5942485290668362
  0.6560040011672397  0.8464951023575018  0.6220799372061457
  0.6228503279322867  0.6288606292865575  0.6160817559577222
  0.7893009387450804  0.5308709985426261  0.3423496478768185
  0.0594147776098827  0.9151483497250641  0.6212728855396791
  0.8727253233558352  0.9246019478455626  0.6336155520308441
 -0.0255299256224620  0.6928102589315147  0.4415632312139915
  0.6470160407835615  0.4600842689846615  0.5471884611091532
  0.4879879464164504  0.5042497178131309  0.4722867515521772
  0.3921675561610428  0.6440006983024886  0.6972711572502730
  0.3759354461091445  0.5714085263314506  0.9394766348503973
  0.3154374145921044  0.5317661854359119  0.0139705159132829

  0.00000000E+00  0.00000000E+00  0.00000000E+00
  0.00000000E+00  0.00000000E+00  0.00000000E+00
  0.00000000E+00  0.00000000E+00  0.00000000E+00
  0.00000000E+00  0.00000000E+00  0.00000000E+00
  0.00000000E+00  0.00000000E+00  0.00000000E+00
  0.00000000E+00  0.00000000E+00  0.00000000E+00
  0.00000000E+00  0.00000000E+00  0.00000000E+00
  0.00000000E+00  0.00000000E+00  0.00000000E+00
  0.00000000E+00  0.00000000E+00  0.00000000E+00
  0.00000000E+00  0.00000000E+00  0.00000000E+00
  0.00000000E+00  0.00000000E+00  0.00000000E+00
  0.00000000E+00  0.00000000E+00  0.00000000E+00
  0.00000000E+00  0.00000000E+00  0.00000000E+00
  0.00000000E+00  0.00000000E+00  0.00000000E+00
  0.00000000E+00  0.00000000E+00  0.00000000E+00
  0.00000000E+00  0.00000000E+00  0.00000000E+00
  0.00000000E+00  0.00000000E+00  0.00000000E+00
  0.00000000E+00  0.00000000E+00  0.00000000E+00
  0.00000000E+00  0.00000000E+00  0.00000000E+00
  0.00000000E+00  0.00000000E+00  0.00000000E+00
  0.00000000E+00  0.00000000E+00  0.00000000E+00
  0.00000000E+00  0.00000000E+00  0.00000000E+00
  0.00000000E+00  0.00000000E+00  0.00000000E+00
  0.00000000E+00  0.00000000E+00  0.00000000E+00
  0.00000000E+00  0.00000000E+00  0.00000000E+00
  0.00000000E+00  0.00000000E+00  0.00000000E+00
  0.00000000E+00  0.00000000E+00  0.00000000E+00
  0.00000000E+00  0.00000000E+00  0.00000000E+00
  0.00000000E+00  0.00000000E+00  0.00000000E+00
  0.00000000E+00  0.00000000E+00  0.00000000E+00
  0.00000000E+00  0.00000000E+00  0.00000000E+00
  0.00000000E+00  0.00000000E+00  0.00000000E+00
  0.00000000E+00  0.00000000E+00  0.00000000E+00
  0.00000000E+00  0.00000000E+00  0.00000000E+00
  0.00000000E+00  0.00000000E+00  0.00000000E+00
  0.00000000E+00  0.00000000E+00  0.00000000E+00
  0.00000000E+00  0.00000000E+00  0.00000000E+00
  0.00000000E+00  0.00000000E+00  0.00000000E+00
  0.00000000E+00  0.00000000E+00  0.00000000E+00
  0.00000000E+00  0.00000000E+00  0.00000000E+00
  0.00000000E+00  0.00000000E+00  0.00000000E+00
  0.00000000E+00  0.00000000E+00  0.00000000E+00
  0.00000000E+00  0.00000000E+00  0.00000000E+00
  0.00000000E+00  0.00000000E+00  0.00000000E+00
  0.00000000E+00  0.00000000E+00  0.00000000E+00
  0.00000000E+00  0.00000000E+00  0.00000000E+00
  0.00000000E+00  0.00000000E+00  0.00000000E+00
  0.00000000E+00  0.00000000E+00  0.00000000E+00
  0.00000000E+00  0.00000000E+00  0.00000000E+00
  0.00000000E+00  0.00000000E+00  0.00000000E+00
  0.00000000E+00  0.00000000E+00  0.00000000E+00
  0.00000000E+00  0.00000000E+00  0.00000000E+00
  0.00000000E+00  0.00000000E+00  0.00000000E+00
  0.00000000E+00  0.00000000E+00  0.00000000E+00
  0.00000000E+00  0.00000000E+00  0.00000000E+00
  0.00000000E+00  0.00000000E+00  0.00000000E+00
  0.00000000E+00  0.00000000E+00  0.00000000E+00
  0.00000000E+00  0.00000000E+00  0.00000000E+00
  0.00000000E+00  0.00000000E+00  0.00000000E+00
