POSCAR-c3n4                             
   1.1200000000000001     
    13.8434242346000005   -0.1907404740000000    0.0000000000000000
    -6.9217121174000003   11.6951909939000007    0.0000000000000000
     0.0000000000000000    0.0000000000000000   15.0000000000000000
   C    N    Ge   C    O 
    24    32     1     1     1
Direct
  0.0756470738333808  0.1474408698750246  0.4576656618555514
  0.2867812131760609  0.4430091006682446  0.4931142846008397
  0.1285010651681164  0.4366445043651303  0.4881554858219619
  0.4915705692855191  0.0553445355516551  0.4744811912960363
  0.4225761863361398  0.4211288530863854  0.4744070732340260
  0.0839730616593962  0.0172303213902057  0.4934234561815910
  0.0643400694035900  0.7039494912731961  0.5128545370604983
  0.3470439582635430  0.9011119412760467  0.4578188423908015
  0.0630637565247641  0.8594353142388588  0.5218681724609746
  0.4521559335252764  0.5879475487926230  0.5135448337541743
  0.4859472958074664  0.8914043220211501  0.4712096282652096
  0.0996927142469984  0.5748398354452735  0.5049587654315094
  0.6478212379686648  0.2022195906038707  0.4929458821147077
  0.8006138992878776  0.3673014342507491  0.4818653809248020
  0.5622296121094968  0.4168971690843360  0.4471094038844357
  0.9259632596227206  0.0207801377205281  0.4709060780838750
  0.9630386029543451  0.3988955857940985  0.4776380126225623
  0.6376167770709740  0.0480013391302190  0.5163270965995213
  0.6118752967777901  0.7259191380543399  0.5108909698070710
  0.7802137816262363  0.8822300044465172  0.5120178101995523
  0.6269064260903684  0.8938807469526058  0.5084667770035539
  0.9288394858429541  0.5377924274055322  0.4948812216610990
  0.9205456178879877  0.8714106054212790  0.5299240056942799
  0.5941234994328959  0.5756660147404939  0.4694299199030244
  0.1878574587733481  0.3961810218405944  0.4856116447208153
  0.1388977347190327  0.1255532880488026  0.4770561306690246
  0.3890156599044073 -0.0005785844650833  0.4622141187342905
  0.4647982881060388  0.3646736788546963  0.4588482084641483
  0.3247839282599705  0.3815878577293098  0.4801357349363681
  0.5458161359168849  0.1554167614774253  0.4759513392450495
  0.1258579846366724  0.9654713139749672  0.5060783892912663
 -0.0227516089528464 -0.0276047366897307  0.4955994830895090
  0.1090945874581003  0.8079432944890286  0.5156437747970146
  0.1340770510874942  0.6724470897764628  0.5183073938446707
  0.3505053217136736  0.5476584492968031  0.5140244298239121
  0.5367116745946868  0.8433583734108845  0.4715822458455065
  0.3850358253106182  0.8401894376045369  0.4584260124573131
  0.5158540571175960  0.6830355674910807  0.5380602755636643
  0.1667271466259428  0.5412188086981802  0.5030458295451889
 -0.0012114192129984  0.5040085615451353  0.4930419113615014
  0.7001161610697880  0.3034917522777796  0.4826479785501360
  0.6893779338985208  0.1481957247786347  0.5233659633104960
  0.8280970583189753  0.9735580032187752  0.4719082132104271
  0.0310876212195022  0.3693395066221862  0.4746088615831594
  0.8658773861778567  0.3329761890381146  0.4684936612689301
  0.9869317250704283  0.1231492892116274  0.4448295840371655
  0.6756956935063733 -0.0117671388455207  0.5371590242742300
  0.5374762521577613 -0.0034170825709862  0.4858213629741064
  0.6737015858739359  0.8343591597723394  0.5169015185671096
  0.6522991217087508  0.6779735338705050  0.4757151155354055
  0.8314823405673673  0.4691392418799109  0.4910705886963727
 -0.0357897572938203  0.8193402992229181  0.5440960230333481
  0.8216929426800021  0.8350481766017186  0.5455554109849975
 -0.0346310455249603  0.6394306072932494  0.5009030497793895
  0.6298331608952856  0.5165006030185799  0.4472305307575800
  0.4893886558305239  0.5286049209532324  0.4846181285707085
  0.3050750634508795  0.6542825429353064  0.5418965823045686
  0.2465582823771082  0.5529306850200434  0.6835238191946146
  0.2637008796475275  0.5611454826753848  0.7501231699997002

  0.00000000E+00  0.00000000E+00  0.00000000E+00
  0.00000000E+00  0.00000000E+00  0.00000000E+00
  0.00000000E+00  0.00000000E+00  0.00000000E+00
  0.00000000E+00  0.00000000E+00  0.00000000E+00
  0.00000000E+00  0.00000000E+00  0.00000000E+00
  0.00000000E+00  0.00000000E+00  0.00000000E+00
  0.00000000E+00  0.00000000E+00  0.00000000E+00
  0.00000000E+00  0.00000000E+00  0.00000000E+00
  0.00000000E+00  0.00000000E+00  0.00000000E+00
  0.00000000E+00  0.00000000E+00  0.00000000E+00
  0.00000000E+00  0.00000000E+00  0.00000000E+00
  0.00000000E+00  0.00000000E+00  0.00000000E+00
  0.00000000E+00  0.00000000E+00  0.00000000E+00
  0.00000000E+00  0.00000000E+00  0.00000000E+00
  0.00000000E+00  0.00000000E+00  0.00000000E+00
  0.00000000E+00  0.00000000E+00  0.00000000E+00
  0.00000000E+00  0.00000000E+00  0.00000000E+00
  0.00000000E+00  0.00000000E+00  0.00000000E+00
  0.00000000E+00  0.00000000E+00  0.00000000E+00
  0.00000000E+00  0.00000000E+00  0.00000000E+00
  0.00000000E+00  0.00000000E+00  0.00000000E+00
  0.00000000E+00  0.00000000E+00  0.00000000E+00
  0.00000000E+00  0.00000000E+00  0.00000000E+00
  0.00000000E+00  0.00000000E+00  0.00000000E+00
  0.00000000E+00  0.00000000E+00  0.00000000E+00
  0.00000000E+00  0.00000000E+00  0.00000000E+00
  0.00000000E+00  0.00000000E+00  0.00000000E+00
  0.00000000E+00  0.00000000E+00  0.00000000E+00
  0.00000000E+00  0.00000000E+00  0.00000000E+00
  0.00000000E+00  0.00000000E+00  0.00000000E+00
  0.00000000E+00  0.00000000E+00  0.00000000E+00
  0.00000000E+00  0.00000000E+00  0.00000000E+00
  0.00000000E+00  0.00000000E+00  0.00000000E+00
  0.00000000E+00  0.00000000E+00  0.00000000E+00
  0.00000000E+00  0.00000000E+00  0.00000000E+00
  0.00000000E+00  0.00000000E+00  0.00000000E+00
  0.00000000E+00  0.00000000E+00  0.00000000E+00
  0.00000000E+00  0.00000000E+00  0.00000000E+00
  0.00000000E+00  0.00000000E+00  0.00000000E+00
  0.00000000E+00  0.00000000E+00  0.00000000E+00
  0.00000000E+00  0.00000000E+00  0.00000000E+00
  0.00000000E+00  0.00000000E+00  0.00000000E+00
  0.00000000E+00  0.00000000E+00  0.00000000E+00
  0.00000000E+00  0.00000000E+00  0.00000000E+00
  0.00000000E+00  0.00000000E+00  0.00000000E+00
  0.00000000E+00  0.00000000E+00  0.00000000E+00
  0.00000000E+00  0.00000000E+00  0.00000000E+00
  0.00000000E+00  0.00000000E+00  0.00000000E+00
  0.00000000E+00  0.00000000E+00  0.00000000E+00
  0.00000000E+00  0.00000000E+00  0.00000000E+00
  0.00000000E+00  0.00000000E+00  0.00000000E+00
  0.00000000E+00  0.00000000E+00  0.00000000E+00
  0.00000000E+00  0.00000000E+00  0.00000000E+00
  0.00000000E+00  0.00000000E+00  0.00000000E+00
  0.00000000E+00  0.00000000E+00  0.00000000E+00
  0.00000000E+00  0.00000000E+00  0.00000000E+00
  0.00000000E+00  0.00000000E+00  0.00000000E+00
  0.00000000E+00  0.00000000E+00  0.00000000E+00
  0.00000000E+00  0.00000000E+00  0.00000000E+00
