POSCAR-clean                            
   1.00000000000000     
    14.9005570071999998   -0.0604177925000000    0.0000000000000000
    -7.4502785035999999   12.7875044806999991    0.0000000000000000
     0.0000000000000000    0.0000000000000000   15.0000000000000000
   C    N    C    Cr   C    O 
    52     1    17     1     1     1
Direct
  0.9996057183343642  0.9998727075164638  0.4911771778627079
  0.0556980449555419  0.1115735471607413  0.4906937510773395
  0.1677759275221304  0.0024669326467705  0.4899077839508783
  0.2238265186709040  0.1142435265912783  0.4918533956496518
  0.3343978722606755  0.0027851871544214  0.4901089845804995
  0.3903394279799942  0.1141934947543921  0.4925626550375368
  0.4998629826709970  0.0002914720840675  0.4910498995709100
  0.5559790010380727  0.1115828842877042  0.4915785450805279
  0.6654304989335069  0.9973964232481719  0.4930141313224453
  0.7217521866602095  0.1090229732046746  0.4914027411479140
  0.8312872928939619  0.9969118051656585  0.4926312786851635
  0.8875522740626238  0.1087019059054436  0.4907613167213603
  0.9991047331272008  0.1655848755552577  0.4901218053800978
  0.0550981637510968  0.2773007383428763  0.4893696591351059
  0.1676090482449105  0.1687519263709408  0.4919232814299707
  0.2237239124710477  0.2806498014557058  0.4944457231282942
  0.3356415180545946  0.1710935245847708  0.4946413031699816
  0.3915621250266347  0.2825406229531547  0.5012458947558249
  0.5012650792398765  0.1683240759478074  0.4932323957531052
  0.5575048016345854  0.2797885607948266  0.4967328626523763
  0.6668956113629774  0.1652752105793134  0.4914504320485125
  0.7230287747676770  0.2765395272126301  0.4917777858754226
  0.8327383272717157  0.1647193334252161  0.4902235058319466
  0.8886308792639489  0.2762918203944502  0.4887488652395797
 -0.0003874060792332  0.3325959429697317  0.4879589145444861
  0.0549031451998964  0.4441692861556968  0.4873392718248971
  0.1662006260605941  0.3340752573439482  0.4918505879002977
  0.2204376327018797  0.4456131242708447  0.4921792397682510
  0.3357377995542603  0.3387255055891377  0.5014240420533184
  0.3878736557915655  0.4502867911749602  0.5094856252270318
  0.5039554256510349  0.3380990208279722  0.5038051306984246
  0.5631120860101987  0.4487323599575178  0.5124248277649669
  0.6684315322806201  0.3325018537068544  0.4950683911806200
  0.7258833333159593  0.4434510926933976  0.4962403487672415
  0.8339640738868392  0.3322221013701546  0.4897203993779464
  0.8901991585397333  0.4438262747537458  0.4895103865219149
  0.0005896098448236  0.5001592790890488  0.4877324098588642
  0.0559696870383702  0.6116512988693422  0.4878688305639510
  0.1650949761703790  0.5005948164736077  0.4883629921587085
  0.2203570820201542  0.6119047715417255  0.4879376571619117
  0.3302575341493915  0.5020673064965927  0.4991439814066631
  0.3853268911726847  0.6143902199968684  0.4986153505839497
  0.6721754758641707  0.4987296087817162  0.5020996504240556
  0.7277870862092027  0.6109639604005395  0.4980056118589693
  0.8363539187041200  0.4997082839343722  0.4924264927701199
  0.8917683354883720  0.6111594945384473  0.4925321894955511
  0.0016463448570640  0.6675834246726362  0.4898125321046266
  0.0565136339133571  0.7792860969027687  0.4895061865312353
  0.1663453266186867  0.6679580331195246  0.4872910310564895
  0.2221877986784841  0.7795926166123118  0.4881564914162903
  0.3307000136533939  0.6684710457833644  0.4909417084159360
  0.3874063018060443  0.7793990523820287  0.4912522188730052
  0.4914583732511314  0.6655830195637086  0.5075714858770300
  0.5500705169311303  0.7729769166791106  0.4996503675564016
  0.6680636271079782  0.6605100027415822  0.4990856677740118
  0.7190647047079044  0.7713371391480540  0.4962738929642180
  0.8372193787323789  0.6669513250191405  0.4943562099829061
  0.8901024976668022  0.7780540703983526  0.4926272218746504
  0.0011185482733014  0.8345716841097036  0.4907444794110088
  0.0563172895580156  0.9459016856340552  0.4904658306621064
  0.1673019115037862  0.8353576027763118  0.4885724736123334
  0.2231584307703989  0.9469449924821041  0.4892075478586306
  0.3329589010193961  0.8353852825122310  0.4894631994245225
  0.3892013539610914  0.9465974697303314  0.4901789122262708
  0.4979595380844015  0.8322643604952192  0.4938976921481222
  0.5547198764737076  0.9436772985267411  0.4924427474317014
  0.6624301818734618  0.8272590566421480  0.4974821545629475
  0.7191039208545059  0.9395010524582671  0.4942679993799522
  0.8320328991052925  0.8308292409838663  0.4936509497136013
  0.8877272400144430  0.9426129579826765  0.4926121308099823
  0.5276996883509044  0.5568785179935021  0.5470929986000389
  0.5024566735137445  0.5221192078525168  0.6719689579610891
  0.4999805665911036  0.5118282278443921  0.7490394050049257
 
  0.00000000E+00  0.00000000E+00  0.00000000E+00
  0.00000000E+00  0.00000000E+00  0.00000000E+00
  0.00000000E+00  0.00000000E+00  0.00000000E+00
  0.00000000E+00  0.00000000E+00  0.00000000E+00
  0.00000000E+00  0.00000000E+00  0.00000000E+00
  0.00000000E+00  0.00000000E+00  0.00000000E+00
  0.00000000E+00  0.00000000E+00  0.00000000E+00
  0.00000000E+00  0.00000000E+00  0.00000000E+00
  0.00000000E+00  0.00000000E+00  0.00000000E+00
  0.00000000E+00  0.00000000E+00  0.00000000E+00
  0.00000000E+00  0.00000000E+00  0.00000000E+00
  0.00000000E+00  0.00000000E+00  0.00000000E+00
  0.00000000E+00  0.00000000E+00  0.00000000E+00
  0.00000000E+00  0.00000000E+00  0.00000000E+00
  0.00000000E+00  0.00000000E+00  0.00000000E+00
  0.00000000E+00  0.00000000E+00  0.00000000E+00
  0.00000000E+00  0.00000000E+00  0.00000000E+00
  0.00000000E+00  0.00000000E+00  0.00000000E+00
  0.00000000E+00  0.00000000E+00  0.00000000E+00
  0.00000000E+00  0.00000000E+00  0.00000000E+00
  0.00000000E+00  0.00000000E+00  0.00000000E+00
  0.00000000E+00  0.00000000E+00  0.00000000E+00
  0.00000000E+00  0.00000000E+00  0.00000000E+00
  0.00000000E+00  0.00000000E+00  0.00000000E+00
  0.00000000E+00  0.00000000E+00  0.00000000E+00
  0.00000000E+00  0.00000000E+00  0.00000000E+00
  0.00000000E+00  0.00000000E+00  0.00000000E+00
  0.00000000E+00  0.00000000E+00  0.00000000E+00
  0.00000000E+00  0.00000000E+00  0.00000000E+00
  0.00000000E+00  0.00000000E+00  0.00000000E+00
  0.00000000E+00  0.00000000E+00  0.00000000E+00
  0.00000000E+00  0.00000000E+00  0.00000000E+00
  0.00000000E+00  0.00000000E+00  0.00000000E+00
  0.00000000E+00  0.00000000E+00  0.00000000E+00
  0.00000000E+00  0.00000000E+00  0.00000000E+00
  0.00000000E+00  0.00000000E+00  0.00000000E+00
  0.00000000E+00  0.00000000E+00  0.00000000E+00
  0.00000000E+00  0.00000000E+00  0.00000000E+00
  0.00000000E+00  0.00000000E+00  0.00000000E+00
  0.00000000E+00  0.00000000E+00  0.00000000E+00
  0.00000000E+00  0.00000000E+00  0.00000000E+00
  0.00000000E+00  0.00000000E+00  0.00000000E+00
  0.00000000E+00  0.00000000E+00  0.00000000E+00
  0.00000000E+00  0.00000000E+00  0.00000000E+00
  0.00000000E+00  0.00000000E+00  0.00000000E+00
  0.00000000E+00  0.00000000E+00  0.00000000E+00
  0.00000000E+00  0.00000000E+00  0.00000000E+00
  0.00000000E+00  0.00000000E+00  0.00000000E+00
  0.00000000E+00  0.00000000E+00  0.00000000E+00
  0.00000000E+00  0.00000000E+00  0.00000000E+00
  0.00000000E+00  0.00000000E+00  0.00000000E+00
  0.00000000E+00  0.00000000E+00  0.00000000E+00
  0.00000000E+00  0.00000000E+00  0.00000000E+00
  0.00000000E+00  0.00000000E+00  0.00000000E+00
  0.00000000E+00  0.00000000E+00  0.00000000E+00
  0.00000000E+00  0.00000000E+00  0.00000000E+00
  0.00000000E+00  0.00000000E+00  0.00000000E+00
  0.00000000E+00  0.00000000E+00  0.00000000E+00
  0.00000000E+00  0.00000000E+00  0.00000000E+00
  0.00000000E+00  0.00000000E+00  0.00000000E+00
  0.00000000E+00  0.00000000E+00  0.00000000E+00
  0.00000000E+00  0.00000000E+00  0.00000000E+00
  0.00000000E+00  0.00000000E+00  0.00000000E+00
  0.00000000E+00  0.00000000E+00  0.00000000E+00
  0.00000000E+00  0.00000000E+00  0.00000000E+00
  0.00000000E+00  0.00000000E+00  0.00000000E+00
  0.00000000E+00  0.00000000E+00  0.00000000E+00
  0.00000000E+00  0.00000000E+00  0.00000000E+00
  0.00000000E+00  0.00000000E+00  0.00000000E+00
  0.00000000E+00  0.00000000E+00  0.00000000E+00
  0.00000000E+00  0.00000000E+00  0.00000000E+00
  0.00000000E+00  0.00000000E+00  0.00000000E+00
  0.00000000E+00  0.00000000E+00  0.00000000E+00
