POSCAR-clean
1.0
14.9005570072 -0.0604177925 0.0
-7.4502785036 12.7875044807 0.0
0.0 0.0 15.0
C N C Cr C O
52 1 17 1 1 1
Cartesian
7.4469388757 12.7229473287 7.3563570081
0.0006684122 1.4202882687 7.3583335278
2.4813534818 0.0206315004 7.3481856514
2.4837950411 1.4454947139 7.3611397929
4.9590365534 0.0131634099 7.3514540221
4.9675845632 1.4332889293 7.3614809217
7.4458951852 -0.0285682442 7.3460218967
7.4552245016 1.3877516095 7.3408134457
2.4852823502 12.7102742727 7.3670193968
9.9439057571 1.3455879466 7.3521524597
4.9615707173 12.6938964918 7.3668711417
12.4184196376 1.3325382794 7.351737755
13.6574526674 2.0542454349 7.3544808109
-1.2431377843 3.5390215781 7.3659736069
1.2421142207 2.1459079816 7.3698335492
1.2448224442 3.5737721732 7.3895247025
3.7285939549 2.1671660168 7.3830335682
3.7387573961 3.5859802443 7.4463928467
6.2189520753 2.1139188568 7.3529489913
6.2319761652 3.5329484938 7.3926027457
8.7093307036 2.0676267983 7.3452466034
8.7198986031 3.4859424065 7.3507155783
11.1847174493 2.0512597927 7.3516043141
11.1878799255 3.4730810448 7.3535833504
12.4223160433 4.1869602536 7.3630053285
-2.4884072453 5.6724689829 7.37110684
-0.0067379716 4.2619122025 7.388950632
-0.0359675594 5.6823088049 7.4120585398
2.4859149703 4.3148119685 7.4207222292
2.4307596048 5.7337377367 7.4470024082
5.0052511621 4.2762147899 7.5038925532
5.0677990183 5.6755442137 7.6769733766
7.4895675352 4.2041217089 7.3760364627
7.5163335216 5.6189810403 7.3916416394
9.9569681747 4.1900458793 7.3517317924
9.9611184555 5.6159553638 7.352835855
-3.7152068642 6.3917197237 7.3609646432
-3.7238095191 7.814010601 7.3615531897
-1.268281536 6.388131079 7.3913371316
-1.28016474 7.8103166304 7.3780908802
1.1914488393 6.3977415323 7.4440725138
1.1638502135 7.8449305451 7.4781321589
6.3026795761 6.3222932372 7.501291902
6.2900005069 7.7613386218 7.4514213689
8.7414393648 6.3327855027 7.3617723377
8.7327604955 7.7565361494 7.373597042
-4.9497267973 8.5316868741 7.3633665392
-4.9659710164 9.9572169484 7.357766707
-2.4997107042 8.5285382933 7.3616753325
-2.5009755425 9.9526958859 7.3574768532
-0.0592110987 8.5315529546 7.4007344765
-0.0395910167 9.9450334016 7.3872643941
2.3516053958 8.4970598483 7.5950840616
2.4294823454 9.8579526989 7.4806181062
5.0435428899 8.4079586283 7.4753004921
4.9666483067 9.8194867709 7.4274704425
7.5045651144 8.4731939266 7.3942265291
7.4641337979 9.8895937174 7.3776062657
-6.2015487768 10.6680516471 7.3576727482
-6.2069375043 12.0890484972 7.3505184255
-3.7334971832 10.6709556027 7.3534332881
-3.7323364403 12.0929206269 7.3506484258
-1.2684234614 10.6613638406 7.3610741151
-1.2567544268 12.0792109057 7.3511540382
1.2141973156 10.6161472786 7.3974583923
1.2336368701 12.034082095 7.3618740793
3.7070885881 10.5379110398 7.4423961205
3.716161906 11.9663985033 7.3891380791
6.2072756881 10.5700336438 7.3892847603
6.2051211517 11.9965962766 7.3706726688
3.72290795 7.0699263853 8.1216829889
3.72290795 7.0699263853 10.6016829889
3.4018940034 6.3440826926 11.4470201726