POSCAR-c3n4                             
   1.1799999999999999     
    13.8434242346000023   -0.1907404740000000    0.0000000000000000
    -6.9217121174000003   11.6951909939000007    0.0000000000000000
     0.0000000000000000    0.0000000000000000   15.0000000000000000
   C    N    Ge   C    O 
    24    32     1     1     1
Direct
  0.0702431694115475  0.1337102350046067  0.4528186732369122
  0.3509661041979157  0.4424183115133786  0.5579181134242077
  0.1236435781603973  0.4731392085569865  0.4555295671035253
  0.5171778489498280  0.0643107232504576  0.4766297716380166
  0.4579123664095732  0.4377264567410677  0.4821793052332737
  0.0582378315446661  0.9939962485931133  0.4975094706080156
  0.0381157027988834  0.6964731223649920  0.5258687454959983
  0.3733135361072328  0.9257819377735501  0.4611497412526262
  0.0308307117361508  0.8428904363279415  0.5303384792803456
  0.4802295923613968  0.5903435767947087  0.5350777216345648
  0.4950328348236468  0.8996539091404898  0.4852317578186955
  0.0824530063552444  0.5819296923034116  0.4923725686741562
  0.6671549583198058  0.1973624527349145  0.5025987174205113
  0.8065732529963796  0.3632788780404255  0.5004655222000380
  0.5724576425643804  0.4545211403929059  0.4037872939924299
  0.9174467969605047  0.0055795097775828  0.4678513787979526
  0.9620754893270629  0.4124247919760862  0.4683428797087998
  0.6492093966347809  0.0453478859411973  0.5164109875623950
  0.6136971420233266  0.7329929292164081  0.5020516151152918
  0.7731999814188484  0.8786268008621718  0.5035316428018319
  0.6282127826802792  0.8931978963674538  0.5100296072993160
  0.9177615202241540  0.5297883431885708  0.5147278324878783
  0.8987034611200428  0.8585880522392628  0.5272403213227790
  0.5979015457382673  0.5971580122750453  0.4473409496184573
  0.1289290978776734  0.2297921919541750  0.4337621585339448
  0.1152855750372197  0.0885536934756885  0.4778541677090402
  0.4215495423426390  0.0189327742110308  0.4587210471639125
  0.4913062296533539  0.3946340203113792  0.4378516937873869
  0.3751200767244072  0.3884610776298203  0.5208138088773850
  0.5733047240306703  0.1585334117598123  0.4797155255493166
  0.0940360898446926  0.9396078857530341  0.5160305424446037
  0.9576998344405041  0.9528382059327996  0.4969024797862147
  0.0756685070932406  0.7912792886771811  0.5301989396357101
  0.1114386824430227  0.6723606493853751  0.5136535816122034
  0.3934725589421930  0.5370311602867872  0.5687374475585614
  0.5340481953656919  0.8458736308821244  0.4894814019172031
  0.3979501035928052  0.8594946470801830  0.4726423908119060
  0.5349514050028645  0.6864123437530907  0.5449021958801907
  0.1548014586059381  0.5662618256364453  0.4751107106736185
  0.9896956195427933  0.5089458187572191  0.4901346489703471
  0.7156594780481669  0.2945432316141634  0.5075219894315381
  0.7037205031914766  0.1412468148086603  0.5236643691566698
  0.8215041663133889  0.9615453383150125  0.4649560844658325
  0.0379115831964540  0.4013761973813246  0.4484604499222797
  0.8732582290997684  0.3427235455209185  0.4698895139928183
  0.9745852864016697  0.0965273627948093  0.4439148946885183
  0.6832396069289430  0.9860836896360539  0.5297292820429504
  0.5517778668541311  0.0012895292306823  0.4924725240205490
  0.6707148083331234  0.8360875061410411  0.5086338745160646
  0.6457777635447641  0.6939042307411398  0.4522302697303999
  0.8293844250327567  0.4557721036299043  0.5213878538566661
  0.9355125199874266  0.8036735801998631  0.5433488674566647
  0.8050073982259462  0.8268668051088852  0.5378276329495364
  0.9457317445084428  0.6230813623189206  0.5286299471933020
  0.6274949473324014  0.5495458413154992  0.4031005950394899
  0.5119248122810305  0.5411321255105932  0.4886119552235897
  0.2559274041070978  0.7084700209260220  0.5314454349684894
  0.2325042203788641  0.5840553736605756  0.6626750858316299
  0.2566765644231026  0.5671446759283114  0.7179839707467934

  0.00000000E+00  0.00000000E+00  0.00000000E+00
  0.00000000E+00  0.00000000E+00  0.00000000E+00
  0.00000000E+00  0.00000000E+00  0.00000000E+00
  0.00000000E+00  0.00000000E+00  0.00000000E+00
  0.00000000E+00  0.00000000E+00  0.00000000E+00
  0.00000000E+00  0.00000000E+00  0.00000000E+00
  0.00000000E+00  0.00000000E+00  0.00000000E+00
  0.00000000E+00  0.00000000E+00  0.00000000E+00
  0.00000000E+00  0.00000000E+00  0.00000000E+00
  0.00000000E+00  0.00000000E+00  0.00000000E+00
  0.00000000E+00  0.00000000E+00  0.00000000E+00
  0.00000000E+00  0.00000000E+00  0.00000000E+00
  0.00000000E+00  0.00000000E+00  0.00000000E+00
  0.00000000E+00  0.00000000E+00  0.00000000E+00
  0.00000000E+00  0.00000000E+00  0.00000000E+00
  0.00000000E+00  0.00000000E+00  0.00000000E+00
  0.00000000E+00  0.00000000E+00  0.00000000E+00
  0.00000000E+00  0.00000000E+00  0.00000000E+00
  0.00000000E+00  0.00000000E+00  0.00000000E+00
  0.00000000E+00  0.00000000E+00  0.00000000E+00
  0.00000000E+00  0.00000000E+00  0.00000000E+00
  0.00000000E+00  0.00000000E+00  0.00000000E+00
  0.00000000E+00  0.00000000E+00  0.00000000E+00
  0.00000000E+00  0.00000000E+00  0.00000000E+00
  0.00000000E+00  0.00000000E+00  0.00000000E+00
  0.00000000E+00  0.00000000E+00  0.00000000E+00
  0.00000000E+00  0.00000000E+00  0.00000000E+00
  0.00000000E+00  0.00000000E+00  0.00000000E+00
  0.00000000E+00  0.00000000E+00  0.00000000E+00
  0.00000000E+00  0.00000000E+00  0.00000000E+00
  0.00000000E+00  0.00000000E+00  0.00000000E+00
  0.00000000E+00  0.00000000E+00  0.00000000E+00
  0.00000000E+00  0.00000000E+00  0.00000000E+00
  0.00000000E+00  0.00000000E+00  0.00000000E+00
  0.00000000E+00  0.00000000E+00  0.00000000E+00
  0.00000000E+00  0.00000000E+00  0.00000000E+00
  0.00000000E+00  0.00000000E+00  0.00000000E+00
  0.00000000E+00  0.00000000E+00  0.00000000E+00
  0.00000000E+00  0.00000000E+00  0.00000000E+00
  0.00000000E+00  0.00000000E+00  0.00000000E+00
  0.00000000E+00  0.00000000E+00  0.00000000E+00
  0.00000000E+00  0.00000000E+00  0.00000000E+00
  0.00000000E+00  0.00000000E+00  0.00000000E+00
  0.00000000E+00  0.00000000E+00  0.00000000E+00
  0.00000000E+00  0.00000000E+00  0.00000000E+00
  0.00000000E+00  0.00000000E+00  0.00000000E+00
  0.00000000E+00  0.00000000E+00  0.00000000E+00
  0.00000000E+00  0.00000000E+00  0.00000000E+00
  0.00000000E+00  0.00000000E+00  0.00000000E+00
  0.00000000E+00  0.00000000E+00  0.00000000E+00
  0.00000000E+00  0.00000000E+00  0.00000000E+00
  0.00000000E+00  0.00000000E+00  0.00000000E+00
  0.00000000E+00  0.00000000E+00  0.00000000E+00
  0.00000000E+00  0.00000000E+00  0.00000000E+00
  0.00000000E+00  0.00000000E+00  0.00000000E+00
  0.00000000E+00  0.00000000E+00  0.00000000E+00
  0.00000000E+00  0.00000000E+00  0.00000000E+00
  0.00000000E+00  0.00000000E+00  0.00000000E+00
  0.00000000E+00  0.00000000E+00  0.00000000E+00
