POSCAR-c3n4                             
   1.1799999999999999     
    13.8434242346000023   -0.1907404740000000    0.0000000000000000
    -6.9217121174000003   11.6951909939000007    0.0000000000000000
     0.0000000000000000    0.0000000000000000   15.0000000000000000
   C    N    Ge   C    O 
    24    32     1     1     1
Direct
  0.0702431694115459  0.1337102350046065  0.4528186732369105
  0.3509661041979175  0.4424183115133763  0.5579181134242099
  0.1236435781603983  0.4731392085569900  0.4555295671035277
  0.5171778489498300  0.0643107232504556  0.4766297716380145
  0.4579123664095698  0.4377264567410672  0.4821793052332733
  0.0582378315446687 -0.0060037514068861  0.4975094706080173
  0.0381157027988860  0.6964731223649955  0.5258687454959963
  0.3733135361072348  0.9257819377735524  0.4611497412526284
  0.0308307117361481  0.8428904363279427  0.5303384792803443
  0.4802295923614002  0.5903435767947079  0.5350777216345673
  0.4950328348236460  0.8996539091404917  0.4852317578186961
  0.0824530063552445  0.5819296923034137  0.4923725686741557
  0.6671549583198062  0.1973624527349111  0.5025987174205091
  0.8065732529963794  0.3632788780404256  0.5004655222000400
  0.5724576425643777  0.4545211403929026  0.4037872939924292
  0.9174467969605036  0.0055795097775859  0.4678513787979547
  0.9620754893270639  0.4124247919760891  0.4683428797088022
  0.6492093966347844  0.0453478859412001  0.5164109875623920
  0.6136971420233279  0.7329929292164081  0.5020516151152929
  0.7731999814188474  0.8786268008621739  0.5035316428018317
  0.6282127826802771  0.8931978963674568  0.5100296072993146
  0.9177615202241547  0.5297883431885723  0.5147278324878749
  0.8987034611200462  0.8585880522392662  0.5272403213227776
  0.5979015457382669  0.5971580122750471  0.4473409496184573
  0.1289290978776746  0.2297921919541730  0.4337621585339473
  0.1152855750372180  0.0885536934756915  0.4778541677090389
  0.4215495423426411  0.0189327742110333  0.4587210471639133
  0.4913062296533551  0.3946340203113797  0.4378516937873899
  0.3751200767244048  0.3884610776298177  0.5208138088773848
  0.5733047240306688  0.1585334117598108  0.4797155255493166
  0.0940360898446940  0.9396078857530359  0.5160305424446014
  0.9576998344405032  0.9528382059327979  0.4969024797862158
  0.0756685070932430  0.7912792886771833  0.5301989396357072
  0.1114386824430241  0.6723606493853734  0.5136535816122066
  0.3934725589421958  0.5370311602867859  0.5687374475585613
  0.5340481953656949  0.8458736308821209  0.4894814019172054
  0.3979501035928079  0.8594946470801842  0.4726423908119068
  0.5349514050028622  0.6864123437530923  0.5449021958801883
  0.1548014586059400  0.5662618256364487  0.4751107106736201
  0.9896956195427941  0.5089458187572173  0.4901346489703439
  0.7156594780481691  0.2945432316141638  0.5075219894315409
  0.7037205031914797  0.1412468148086628  0.5236643691566726
  0.8215041663133864  0.9615453383150104  0.4649560844658338
  0.0379115831964548  0.4013761973813281  0.4484604499222772
  0.8732582290997664  0.3427235455209173  0.4698895139928190
  0.9745852864016681  0.0965273627948070  0.4439148946885205
  0.6832396069289448 -0.0139163103639465  0.5297292820429502
  0.5517778668541323  0.0012895292306789  0.4924725240205508
  0.6707148083331215  0.8360875061410429  0.5086338745160631
  0.6457777635447663  0.6939042307411409  0.4522302697304012
  0.8293844250327538  0.4557721036299058  0.5213878538566661
  0.9355125199874259  0.8036735801998629  0.5433488674566647
  0.8050073982259432  0.8268668051088826  0.5378276329495353
  0.9457317445084407  0.6230813623189230  0.5286299471933039
  0.6274949473323996  0.5495458413155001  0.4031005950394916
  0.5119248122810334  0.5411321255105933  0.4886119552235893
  0.2559274041070974  0.7084700209260228  0.5314454349684867
  0.2325042203788655  0.5840553736605770  0.6626750858316295
  0.2566765644231026  0.5671446759283081  0.7179839707467921

  0.00000000E+00  0.00000000E+00  0.00000000E+00
  0.00000000E+00  0.00000000E+00  0.00000000E+00
  0.00000000E+00  0.00000000E+00  0.00000000E+00
  0.00000000E+00  0.00000000E+00  0.00000000E+00
  0.00000000E+00  0.00000000E+00  0.00000000E+00
  0.00000000E+00  0.00000000E+00  0.00000000E+00
  0.00000000E+00  0.00000000E+00  0.00000000E+00
  0.00000000E+00  0.00000000E+00  0.00000000E+00
  0.00000000E+00  0.00000000E+00  0.00000000E+00
  0.00000000E+00  0.00000000E+00  0.00000000E+00
  0.00000000E+00  0.00000000E+00  0.00000000E+00
  0.00000000E+00  0.00000000E+00  0.00000000E+00
  0.00000000E+00  0.00000000E+00  0.00000000E+00
  0.00000000E+00  0.00000000E+00  0.00000000E+00
  0.00000000E+00  0.00000000E+00  0.00000000E+00
  0.00000000E+00  0.00000000E+00  0.00000000E+00
  0.00000000E+00  0.00000000E+00  0.00000000E+00
  0.00000000E+00  0.00000000E+00  0.00000000E+00
  0.00000000E+00  0.00000000E+00  0.00000000E+00
  0.00000000E+00  0.00000000E+00  0.00000000E+00
  0.00000000E+00  0.00000000E+00  0.00000000E+00
  0.00000000E+00  0.00000000E+00  0.00000000E+00
  0.00000000E+00  0.00000000E+00  0.00000000E+00
  0.00000000E+00  0.00000000E+00  0.00000000E+00
  0.00000000E+00  0.00000000E+00  0.00000000E+00
  0.00000000E+00  0.00000000E+00  0.00000000E+00
  0.00000000E+00  0.00000000E+00  0.00000000E+00
  0.00000000E+00  0.00000000E+00  0.00000000E+00
  0.00000000E+00  0.00000000E+00  0.00000000E+00
  0.00000000E+00  0.00000000E+00  0.00000000E+00
  0.00000000E+00  0.00000000E+00  0.00000000E+00
  0.00000000E+00  0.00000000E+00  0.00000000E+00
  0.00000000E+00  0.00000000E+00  0.00000000E+00
  0.00000000E+00  0.00000000E+00  0.00000000E+00
  0.00000000E+00  0.00000000E+00  0.00000000E+00
  0.00000000E+00  0.00000000E+00  0.00000000E+00
  0.00000000E+00  0.00000000E+00  0.00000000E+00
  0.00000000E+00  0.00000000E+00  0.00000000E+00
  0.00000000E+00  0.00000000E+00  0.00000000E+00
  0.00000000E+00  0.00000000E+00  0.00000000E+00
  0.00000000E+00  0.00000000E+00  0.00000000E+00
  0.00000000E+00  0.00000000E+00  0.00000000E+00
  0.00000000E+00  0.00000000E+00  0.00000000E+00
  0.00000000E+00  0.00000000E+00  0.00000000E+00
  0.00000000E+00  0.00000000E+00  0.00000000E+00
  0.00000000E+00  0.00000000E+00  0.00000000E+00
  0.00000000E+00  0.00000000E+00  0.00000000E+00
  0.00000000E+00  0.00000000E+00  0.00000000E+00
  0.00000000E+00  0.00000000E+00  0.00000000E+00
  0.00000000E+00  0.00000000E+00  0.00000000E+00
  0.00000000E+00  0.00000000E+00  0.00000000E+00
  0.00000000E+00  0.00000000E+00  0.00000000E+00
  0.00000000E+00  0.00000000E+00  0.00000000E+00
  0.00000000E+00  0.00000000E+00  0.00000000E+00
  0.00000000E+00  0.00000000E+00  0.00000000E+00
  0.00000000E+00  0.00000000E+00  0.00000000E+00
  0.00000000E+00  0.00000000E+00  0.00000000E+00
  0.00000000E+00  0.00000000E+00  0.00000000E+00
  0.00000000E+00  0.00000000E+00  0.00000000E+00
