POSCAR-clean
1.0
14.8584948118 0.0076534733 0.0
-7.4292474058 12.7385461943 0.0
0.0 0.0 15.0
C N C Cr C O
40 1 29 1 1 1
Cartesian
0.0018971894 0.0084525197 7.2557558229
0.0015222936 1.4301381782 7.2539928519
2.4799827541 0.0334477738 7.2519901023
2.4789073006 1.4544234458 7.2650739781
4.9518981715 0.0270205872 7.2545097009
4.9502131117 1.4499615865 7.2649301205
0.0043356134 12.7299266546 7.2553258586
7.4318707899 1.4141266987 7.2559157284
2.4776651307 12.7077947258 7.2650581143
9.9070675004 1.3919565861 7.2514077248
4.9506522555 12.7171396018 7.2642723366
12.3796022013 1.4009471944 7.2549388584
13.615328867 2.1252630227 7.2567268938
-1.2472617046 3.5383828842 7.2643779428
1.2396089264 2.1573555505 7.2627723948
1.240052944 3.5799147558 7.2926838955
3.7116961202 2.1806051823 7.2827685842
3.7087900261 3.6038627069 7.3312772266
6.1944197348 2.1395628581 7.2668885185
6.1951037479 3.5616197093 7.2845997682
8.674042844 2.1097182999 7.2517441028
8.6768314001 3.5283941482 7.2604682485
11.1420033982 2.1066682355 7.25179952
11.141184234 3.5260108341 7.2540176729
12.3741697409 4.2417787944 7.2620931002
-2.4849531092 5.651450178 7.2655369652
-0.0108077454 4.2571092319 7.2829106812
-0.0331558607 5.6694948238 7.2946623823
2.4644373596 4.3417608024 7.3663252175
2.4212387349 5.7634692913 7.4964929491
4.9573410308 4.2995615852 7.3232259581
4.9973301761 5.7073749 7.3934989192
7.4452844089 4.2445890355 7.2864397333
7.4680765692 5.6601353245 7.3185066127
9.9108794709 4.2376227189 7.2572401704
9.9178206473 5.6600919573 7.2650413789
-3.7123047768 6.3673318496 7.2628426101
-3.7154929608 7.7876027272 7.2631532914
-1.261587286 6.372106249 7.2765103944
-1.2713391315 7.7892241118 7.2790435154
1.1606151174 6.3654772723 7.3680288311
1.1786917763 7.7707536479 7.3631845329
6.2457529006 6.3668212149 7.3586078035
6.2456173156 7.8001750351 7.3623712297
8.6962840245 6.3750327852 7.2924913978
8.6954582609 7.7955295914 7.2933587728
-4.9410197037 8.5025739196 7.2643091074
-4.945574971 9.9252992753 7.2568667903
-2.4894574766 8.5031468008 7.2683209083
-2.4815378725 9.9237144428 7.2626948668
-0.0362580813 8.4826166612 7.2946736693
-0.0093943336 9.9011638128 7.2846058957
2.436758414 8.3849510884 7.467614217
2.4743889698 9.8197347891 7.361944397
4.9989511099 8.4610993611 7.3971287151
4.9599688422 9.8674223183 7.3238935108
7.4682457323 8.5096286057 7.3236486382
7.447029145 9.9241412752 7.2888055617
-6.179130276 10.6341804239 7.2608083074
-6.1837005529 12.053116019 7.2520436386
-3.7136248295 10.638478016 7.2532615385
-3.7137933934 12.0585128564 7.2518260858
-1.2427194075 10.6217135818 7.2654382529
-1.2421080913 12.0423427715 7.2566274763
1.2440398354 10.573642607 7.2961379124
1.2415267711 12.0022301764 7.265832916
3.7093296405 10.5646759246 7.3278885216
3.7122811854 11.9865822804 7.2811325269
6.1969900956 10.6053393062 7.2851880729
6.1948095356 12.0278716503 7.2664671651
3.8172088415 7.0794848216 8.1175472367
3.8172088415 7.0794848216 14.0975472367
3.4961948949 6.3536411289 14.9428844204