POSCAR-c3n4                             
  0.83999999999999997     
    13.8434242346000005   -0.1907404740000000    0.0000000000000000
    -6.9217121174000003   11.6951909939000007    0.0000000000000000
     0.0000000000000000    0.0000000000000000   15.0000000000000000
   C    N    Ge   C    O 
    24    32     1     1     1
Direct
  0.1081306402516020  0.2078158669964125  0.3402648366046250
  0.3004405121407601  0.4398231463224036  0.3441310149820822
  0.0738658351869148  0.3886889999058525  0.3283765492505353
  0.4756474809645539  0.9758077492664157  0.4899157477759104
  0.4620278007111125  0.4090391910783495  0.3926383171164147
  0.1511444188771378  0.0680484952582887  0.4296291168617472
  0.0409274898316312  0.6865511176120833  0.5075399742425759
  0.2782690461131594  0.7913047797230206  0.5477250984132809
  0.1637117734201894  0.9233361099037509  0.5390727975396032
  0.4461413784371686  0.5928337622719440  0.4672487630362241
  0.4480127140304333  0.8835325743542768  0.6721361260462260
  0.0176895519008653  0.4940028938722776  0.4448092287577339
  0.6535860896135688  0.1873114451585636  0.4659268944378070
  0.7334925660773024  0.3876660194027437  0.3275718157255767
  0.6059901866894819  0.3635100708607126  0.4654295841228233
  0.9405256894934908  0.0567184902711872  0.4476217972247341
  0.9162672872711610  0.4208416406565902  0.2763127576867674
  0.6564190641706134  0.0935677721189023  0.6196654782165538
  0.6013248026511562  0.7212920695885288  0.5946912259042705
  0.8174847549924564  0.9383566584412790  0.5903895376414923
  0.6448864099985485  0.9231936239958500  0.6988062689450771
  0.8838139749434717  0.5834025038641428  0.3825471824755269
  0.0276430799158192  0.9878511390547260  0.5952571215745195
  0.5950073141524044  0.5272722628435602  0.5490829750406689
  0.1670866819657846  0.3474003555131304  0.3111214244614118
  0.1861031148198720  0.1560880741050639  0.3503530471381282
  0.3622564635904055  0.8680896948365628  0.4641691828032606
  0.5028539029577317  0.3219523883234174  0.3993861957216893
  0.3801658499965157  0.3954465815083381  0.3142798412948409
  0.5535101391627677  0.0779007378389380  0.4205668232266575
  0.2063425029887469  0.9943577036406452  0.4499712145887145
  0.0425637399378473  0.0440927688379062  0.4943891254601027
  0.1545563942918093  0.7969726772641295  0.5415509410809136
  0.0402584247352422  0.5685266768134838  0.5323863415450063
  0.3346943369244428  0.5478909045492344  0.4087269139131564
  0.5192617186811006  0.8513041709037878  0.7361669652620293
  0.3171951285753067  0.8061271815113074  0.6586623959557940
  0.5021594691622653  0.7049065009743245  0.5298573680879741
  0.0653643898137517  0.4127181760275960  0.4319313295543665
  0.9561525259703316  0.5163226365412257  0.3610506563114697
  0.6879978886822400  0.3173289214437531  0.4188892517901763
  0.7144009928982911  0.2079983169553969  0.5594411255344198
  0.8172927772557870  0.9827339481474127  0.4918978268801624
  0.0103336625367518  0.3937583698598459  0.2445924966020172
  0.7889791136375166  0.3512434203557575  0.2502523027184367
  0.9758111256958486  0.1431620709617363  0.3663207324906708
  0.7214876392753027  0.0630896894898569  0.6894083528754607
  0.5204260775423464  0.9949607903872106  0.5984108576789708
  0.6876837553981119  0.8549313228283495  0.6403074405708580
  0.6425673498099940  0.6346572582888186  0.6143536223773225
  0.7625697918755989  0.5225998742995870  0.3378736914136056
  0.1078678546797960  0.9431953430997453  0.6248869863476330
  0.9166513496235211  0.9526773485885371  0.6511262812481746
  0.9465387856987348  0.6904349160211041  0.4485988279866575
  0.6464118457091885  0.4463881240060203  0.5482076965661733
  0.5029158648959324  0.5109535872820814  0.4697481641911665
  0.2267949975368424  0.6002582745110914  0.6014837050074817
  0.2392169422249566  0.5117447259168415  0.9668900052161362
  0.2611988212073015  0.5213405971911129  0.0559506563495447

  0.00000000E+00  0.00000000E+00  0.00000000E+00
  0.00000000E+00  0.00000000E+00  0.00000000E+00
  0.00000000E+00  0.00000000E+00  0.00000000E+00
  0.00000000E+00  0.00000000E+00  0.00000000E+00
  0.00000000E+00  0.00000000E+00  0.00000000E+00
  0.00000000E+00  0.00000000E+00  0.00000000E+00
  0.00000000E+00  0.00000000E+00  0.00000000E+00
  0.00000000E+00  0.00000000E+00  0.00000000E+00
  0.00000000E+00  0.00000000E+00  0.00000000E+00
  0.00000000E+00  0.00000000E+00  0.00000000E+00
  0.00000000E+00  0.00000000E+00  0.00000000E+00
  0.00000000E+00  0.00000000E+00  0.00000000E+00
  0.00000000E+00  0.00000000E+00  0.00000000E+00
  0.00000000E+00  0.00000000E+00  0.00000000E+00
  0.00000000E+00  0.00000000E+00  0.00000000E+00
  0.00000000E+00  0.00000000E+00  0.00000000E+00
  0.00000000E+00  0.00000000E+00  0.00000000E+00
  0.00000000E+00  0.00000000E+00  0.00000000E+00
  0.00000000E+00  0.00000000E+00  0.00000000E+00
  0.00000000E+00  0.00000000E+00  0.00000000E+00
  0.00000000E+00  0.00000000E+00  0.00000000E+00
  0.00000000E+00  0.00000000E+00  0.00000000E+00
  0.00000000E+00  0.00000000E+00  0.00000000E+00
  0.00000000E+00  0.00000000E+00  0.00000000E+00
  0.00000000E+00  0.00000000E+00  0.00000000E+00
  0.00000000E+00  0.00000000E+00  0.00000000E+00
  0.00000000E+00  0.00000000E+00  0.00000000E+00
  0.00000000E+00  0.00000000E+00  0.00000000E+00
  0.00000000E+00  0.00000000E+00  0.00000000E+00
  0.00000000E+00  0.00000000E+00  0.00000000E+00
  0.00000000E+00  0.00000000E+00  0.00000000E+00
  0.00000000E+00  0.00000000E+00  0.00000000E+00
  0.00000000E+00  0.00000000E+00  0.00000000E+00
  0.00000000E+00  0.00000000E+00  0.00000000E+00
  0.00000000E+00  0.00000000E+00  0.00000000E+00
  0.00000000E+00  0.00000000E+00  0.00000000E+00
  0.00000000E+00  0.00000000E+00  0.00000000E+00
  0.00000000E+00  0.00000000E+00  0.00000000E+00
  0.00000000E+00  0.00000000E+00  0.00000000E+00
  0.00000000E+00  0.00000000E+00  0.00000000E+00
  0.00000000E+00  0.00000000E+00  0.00000000E+00
  0.00000000E+00  0.00000000E+00  0.00000000E+00
  0.00000000E+00  0.00000000E+00  0.00000000E+00
  0.00000000E+00  0.00000000E+00  0.00000000E+00
  0.00000000E+00  0.00000000E+00  0.00000000E+00
  0.00000000E+00  0.00000000E+00  0.00000000E+00
  0.00000000E+00  0.00000000E+00  0.00000000E+00
  0.00000000E+00  0.00000000E+00  0.00000000E+00
  0.00000000E+00  0.00000000E+00  0.00000000E+00
  0.00000000E+00  0.00000000E+00  0.00000000E+00
  0.00000000E+00  0.00000000E+00  0.00000000E+00
  0.00000000E+00  0.00000000E+00  0.00000000E+00
  0.00000000E+00  0.00000000E+00  0.00000000E+00
  0.00000000E+00  0.00000000E+00  0.00000000E+00
  0.00000000E+00  0.00000000E+00  0.00000000E+00
  0.00000000E+00  0.00000000E+00  0.00000000E+00
  0.00000000E+00  0.00000000E+00  0.00000000E+00
  0.00000000E+00  0.00000000E+00  0.00000000E+00
  0.00000000E+00  0.00000000E+00  0.00000000E+00
