POSCAR-clean
1.0
14.8530717797 0.0235212199 0.0
-7.4265358898 12.7416551812 0.0
0.0 0.0 15.0
C N C Cr C O
28 1 41 1 1 1
Cartesian
0.0037130806 0.0011257142 7.3491129157
0.0026382746 1.425179863 7.3495390928
2.4810446694 0.0285602649 7.3485382843
2.4791825931 1.4456210616 7.3601618928
4.9475441432 0.0365052735 7.3503272934
4.943952679 1.4614136601 7.3618903002
-6.72168e-05 12.7532350874 7.3512802635
7.4230987678 1.4361622964 7.3502835297
2.477577002 12.731998008 7.35887447
9.9035612723 1.4107985878 7.347279652
4.9516620742 12.7366001854 7.3603732932
12.3757412578 1.4137202525 7.3503477076
13.6131634658 2.1338846686 7.3516820727
-1.239111383 3.5259684801 7.3618405658
1.2444239904 2.1492981764 7.3585059063
1.2414478897 3.5643995568 7.382466881
3.7020523888 2.1822909728 7.3777017137
3.6943480547 3.6043539969 7.4214302158
6.1832585375 2.1620680852 7.3632701744
6.1750302044 3.5840515002 7.3862967974
8.6661661717 2.1283902899 7.3476506374
8.6674943484 3.5463163079 7.3563486292
11.1393824381 2.1226407219 7.3482831946
11.1403097191 3.5440076146 7.350229951
12.3754388211 4.2576964923 7.3587085539
-2.4838021171 5.6544681214 7.3642047514
-0.0044724555 4.2447145923 7.3821407271
-0.0355741747 5.659517771 7.4047896482
2.4613262556 4.2996096487 7.441311347
2.4348115159 5.6898619467 7.5585752578
4.9275453837 4.3366309243 7.4320049076
4.9852039349 5.7508455852 7.5110908191
7.4315273129 4.2612464115 7.3809645669
7.4628863871 5.6782625834 7.4028468114
9.906808375 4.2549977269 7.3533280269
9.9159170829 5.6759334417 7.3598336454
-3.7099355734 6.367439817 7.357825407
-3.7067970997 7.7895914898 7.3557503
-1.260312619 6.3695804231 7.3867523032
-1.2563363988 7.7909322986 7.3931191319
1.1897125827 6.3477774018 7.4652267093
1.2000361902 7.7869735031 7.4643266388
6.2472160428 6.3864368078 7.4530164232
6.25106714 7.8157859502 7.4652547528
8.6939899213 6.3901962984 7.3817894934
8.6974884262 7.8096642798 7.3826974693
-4.9328912512 8.5025003952 7.3573680636
-4.9392244193 9.9248666776 7.3527267265
-2.4792769139 8.5047192545 7.3646107311
-2.4752123843 9.9272184311 7.3579899756
-0.0250053001 8.4991138965 7.420231896
-0.0074263812 9.9188415681 7.3895707836
2.4462276247 8.446305827 7.5069090975
2.4804631007 9.862304736 7.4282551693
4.9992741036 8.4603893236 7.5388651396
4.9588035388 9.8719427932 7.4384890672
7.4701380962 8.5234358807 7.41136328
7.44604116 9.9397124562 7.3830689038
-6.1757103518 10.6332532569 7.3559615841
-6.1807526124 12.0502135007 7.3473633991
-3.7082601598 10.6394786583 7.3496399522
-3.7092098676 12.0616167387 7.3488928799
-1.2417117731 10.6367578821 7.3624346959
-1.241713536 12.0575700642 7.351183321
1.2411218735 10.6035369444 7.3856603779
1.2381952811 12.0291753071 7.3614037085
3.7180716081 10.5907299052 7.4213467746
3.7149673146 12.0105925342 7.376663973
6.1959655897 10.616428454 7.3839580548
6.1937750777 12.0397209494 7.3596250858
3.7092239356 7.0882713949 8.2139356831
3.7092239356 7.0882713949 10.6939356831
3.388209989 6.3624277022 11.5392728668