POSCAR-clean
1.0
14.8605368174 1.1824e-05 0.0
-7.4302684087 12.756349395 0.0
0.0 0.0 15.0
C N C Cr C O
36 1 33 1 1 1
Cartesian
-7.4284194506 12.7538895601 7.3495059471
0.0006507395 1.4234566923 7.3506184142
2.4818816266 0.0238776177 7.3482171
2.4803612883 1.4460927066 7.3589248015
4.9520811984 0.0237803421 7.3508294817
4.953640151 1.4459630164 7.3605345493
0.0018061464 12.7537656685 7.3507434349
7.4332574276 1.4233265327 7.3495191725
2.4796840073 12.7302483539 7.3591684666
9.9108593634 1.3953447167 7.348182355
4.9543356465 12.7303823309 7.3607036348
12.3836360958 1.3954514172 7.3507535255
13.6155170646 2.1169047198 7.3518051918
-1.2509942319 3.5390071348 7.3617254817
1.2382475258 2.1464951259 7.3611089614
1.2362501853 3.5713066819 7.3874936759
3.7170404555 2.1692144657 7.3749848708
3.717109094 3.5926640552 7.4212536503
6.1957232179 2.1463929233 7.3614024649
6.1977148624 3.5713283788 7.3867191991
8.6789585398 2.1167800916 7.3478433532
8.6848606242 3.5388754853 7.3554728812
11.1472129502 2.1058741011 7.3486471519
11.1471783004 3.5248620216 7.350528117
12.3691339427 4.2479021227 7.3590374377
-2.5000223548 5.6694630547 7.3668838802
-0.0180293025 4.248450867 7.3856250262
-0.0478837567 5.662926406 7.4131474927
2.4760325803 4.3128986307 7.4361597143
2.4328462647 5.7281963698 7.5244644052
4.9581273905 4.3133362582 7.4380312182
5.0014870836 5.7288324519 7.5283275306
7.4519163338 4.248351684 7.3803920429
7.4816708854 5.66290023 7.4060860708
9.925224833 4.2478427207 7.3538607593
9.9337872872 5.6694641739 7.3606789721
11.1471277156 6.3743877627 7.3597091221
-3.7134037071 7.7857390507 7.3577655176
-1.2783880244 6.3793702161 7.3903413271
-1.2638407565 7.7996914961 7.3901112794
1.1771027911 6.3708998407 7.4666181986
1.1830085131 7.8015079285 7.4664050394
6.2571826183 6.3709123832 7.465175034
6.2512582638 7.8014689161 7.4649631068
8.7121413119 6.3794086171 7.3806070553
8.6976000617 7.7996481118 7.380189503
-4.935332707 8.4999733881 7.3580828458
-4.9390183915 9.9287147741 7.3531694614
-2.491427778 8.4999803197 7.3648113378
-2.4876858294 9.9286804449 7.3585826796
-0.0400204697 8.5098954077 7.4136763635
-0.0167635017 9.9279785799 7.3859924979
2.4364300889 8.444855272 7.5221114147
2.4763210103 9.8613384999 7.4358700609
4.997887386 8.4441927892 7.5259360927
4.9578314129 9.8608853821 7.4377096569
7.4738249232 8.5099061189 7.4065198946
7.4506531117 9.928072551 7.3807198105
-6.1763812992 10.6398909344 7.3556531416
-6.1825450785 12.0606481077 7.3480201194
-3.7133503516 10.6450721226 7.350480232
-3.7133330529 12.069436778 7.3488827767
-1.2502667807 10.6397976466 7.3619432247
-1.2440515285 12.0605455093 7.3520485136
1.2362350544 10.6042069077 7.3876344653
1.237896387 12.0298223202 7.3613193302
3.7171183395 10.5829017045 7.4216518762
3.7170410398 12.0065954105 7.3755271156
6.1977471788 10.6041618939 7.3867877462
6.1960690196 12.0299220697 7.3614836754
3.7138562329 7.0838702949 8.2062609551
3.7138562329 7.0838702949 10.6862609551
3.3928422863 6.3580266022 11.5315981388