POSCAR-clean
1.0
14.8568849058 2.04971e-05 0.0
-7.4284424528 12.7543188563 0.0
0.0 0.0 15.0
C N C Cr C O
67 1 2 1 1 1
Cartesian
7.4203134923 12.7530197307 7.349527948
-0.0014232747 1.4189911841 7.3508351465
2.4782756928 0.0258256044 7.3479127921
2.4787499318 1.4457724959 7.3586664647
4.9539125827 0.0256439885 7.3509010785
4.953539817 1.4455537718 7.3606919268
0.0118848653 12.7526092774 7.3508167802
7.4336397506 1.4186014921 7.3498027575
2.4940621631 12.7193037999 7.3594742309
9.9203680859 1.3840360537 7.3484913695
4.938254906 12.7195180031 7.3612997258
12.3687365792 1.3842188977 7.351514848
13.6106559678 2.1030245807 7.3522220076
-1.2494146001 3.5241612651 7.3623746018
1.236572174 2.144025219 7.3602830464
1.2354544558 3.5671057105 7.385641197
3.7161734147 2.1705664784 7.3761185764
3.7162068419 3.5901318338 7.4228841012
6.1957120992 2.1437271658 7.3610687979
6.1967679185 3.5668746589 7.3853647696
8.6783701832 2.102728541 7.3477580214
8.6814118493 3.523918752 7.3553521856
11.1445013554 2.1054306273 7.3496262515
11.1444145417 3.5241615494 7.3514086864
12.3759876641 4.236742198 7.3596845453
-2.4874260221 5.6592983981 7.3662196304
-0.0168367178 4.2440124913 7.3854852813
-0.0403965555 5.6623582995 7.4120583094
2.4739745399 4.3107858462 7.4353623672
2.4300266523 5.7238275416 7.524621763
4.9584496661 4.3108470937 7.4377584716
5.0024611157 5.7239518787 7.5292791904
7.4488858832 4.2438375242 7.3800575782
7.472220788 5.6622797314 7.4046714374
9.9127880964 4.2366176644 7.3534827888
9.9191226989 5.6592663731 7.3584230904
11.1442635337 6.3738474356 7.3590620731
-3.7126452907 7.7973469745 7.3591853861
-1.2658462847 6.3752214015 7.3899016872
-1.2649188915 7.7962937425 7.3895398193
1.1810247398 6.3730856154 7.4632808573
1.1842381636 7.8075908516 7.4623936679
6.2512464402 6.3730708794 7.4628157724
6.2480286046 7.8076064847 7.4619711036
8.6975433086 6.3752256998 7.3785094809
8.6965830223 7.796296857 7.3781606435
-4.9383888205 8.5123830424 7.3585978354
-4.9438534544 9.9353330132 7.3535456662
-2.4868689629 8.5123159809 7.3663799436
-2.4812168263 9.9352037639 7.3596780285
-0.0370995253 8.5091372625 7.4103707024
-0.0139881893 9.9274641789 7.3848179682
2.4406766965 8.4574361356 7.5290715591
2.4759575227 9.8747394733 7.4348166589
4.9918500722 8.4573669648 7.5339288378
4.956535498 9.8747108624 7.4373170182
7.4688960507 8.5092177404 7.4030074291
7.4460496003 9.9276586054 7.3793109222
-6.1797909973 10.644638884 7.3553749507
-6.1892325974 12.0616973071 7.3477716965
-3.7125098282 10.6483959741 7.351149944
-3.7124069454 12.0698209385 7.3491080807
-1.2451377376 10.6443840321 7.3622823022
-1.2355274349 12.0614063605 7.3522065269
1.2354116064 10.6041003874 7.3844836398
1.2519603793 12.0228280894 7.3602782797
3.7162509804 10.59536979 7.4229956965
3.7161799623 12.0040901691 7.3770195892
6.1968277189 10.6043528011 7.3839495383
6.1803145469 12.0231482336 7.3607245423
3.7139378095 7.0889485426 8.2115044003
3.7139378095 7.0889485426 10.6915044003
3.3929238629 6.3631048499 11.536841584