POSCAR-clean                            
   1.00000000000000     
    14.8615528463354600    0.0031812625859325    0.0000000000000000
    -7.4307764231177851   12.7513250114940249    0.0000000000000000
     0.0000000000000000    0.0000000000000000   15.0000000000000000
   C    N    C    Cr
    46     1    23     1
Direct
  0.0001065803895851  0.9994534199787665  0.4976247249163220
  0.0557757771716723  0.1111343009954270  0.4977200366464159
  0.1677863783620009  0.0016567956875496  0.4975431897203325
  0.2235056665506334  0.1132902844849034  0.4982564635561066
  0.3338718836443161  0.0016113097136066  0.4977420284473842
  0.3898877857315644  0.1131955911431925  0.4983903077074112
  0.4999152679763658  0.9998494582153526  0.4977325750514778
  0.5557258995172907  0.1113920069337677  0.4976472375184435
  0.6657348534632614  0.9977436593957283  0.4982500278455159
  0.7216097184828328  0.1092996661530663  0.4975398252018359
  0.8324181581209850  0.9977527097917681  0.4983896939136053
  0.8880144688216683  0.1092514654725499  0.4977444593044597
  0.9991349421957340  0.1655110826652623  0.4978175756315827
  0.0544289728633539  0.2769796777378623  0.4984864445507219
  0.1674254612395510  0.1680058654080072  0.4983820472568111
  0.2230650900844910  0.2796928150198525  0.5000824621743469
  0.3351630426176277  0.1701393454673058  0.4993953972255015
  0.3908354716052866  0.2814567742536250  0.5024648018940070
  0.5009283053472345  0.1681130057933902  0.4984035402020471
  0.5571434469413454  0.2799805231806314  0.5000400460556222
  0.6666917591073239  0.1656550190304037  0.4975257227630506
  0.7225668486068121  0.2768959252495539  0.4980312894992989
  0.8326893804079912  0.1650269754237540  0.4976153825051221
  0.8884463247066990  0.2764901921493493  0.4977537338757607
  0.9991988899396697  0.3326773560210904  0.4983152996369688
  0.0546460122032823  0.4445847370321932  0.4987727869262644
  0.1654189754927574  0.3329968557664185  0.5000173622995526
  0.2191805503033192  0.4439941946339122  0.5017334619120142
  0.3353330173836533  0.3377793323148606  0.5033471547849375
  0.3875966076887012  0.4485944142128765  0.5094487544384386
  0.5029584851876734  0.3381225332481494  0.5035718277894454
  0.5615431416216629  0.4489053736509803  0.5099202365174352
  0.6681146459335690  0.3333574086340786  0.4996378046923606
  0.7255553228237347  0.4446994677914693  0.5011652999196234
  0.8334789804515002  0.3324497921586706  0.4978955048763845
  0.8895120827098714  0.4437028264412825  0.4982213751779051
 -0.0002022401725325  0.5006229097822319  0.4982839496938836
  0.0552557711412284  0.6119479645978142  0.4983323317706123
  0.1644908288835557  0.5000069396739990  0.5003025869498068
  0.2195732206048972  0.6112437788192915  0.5002967339026966
  0.3289745768464209  0.4993249340794041  0.5052929568330695
  0.3849732808265141  0.6118892718447240  0.5052727784964594
  0.6709789020599980  0.4994889861567561  0.5052075181498635
  0.7276907780293823  0.6117187898855609  0.5051929772391391
  0.8365528554254307  0.5006867551597511  0.4995113752701271
  0.8924037236013307  0.6118757695847191  0.4996251644179001
  0.0013067048481626  0.6672504631013149  0.4983137428811493
  0.0561593345208779  0.7778540869916504  0.4979151356731131
  0.1655345529936697  0.6676298312846086  0.4988023188604645
  0.2226381726449623  0.7790747844105951  0.4983138318844260
  0.3303936379261998  0.6672213212030821  0.5016974221795690
  0.3879441279003669  0.7781350522163647  0.4999863725489868
  0.4943226737589846  0.6625855112490404  0.5093963526306348
  0.5530169691386847  0.7732240707610998  0.5033870233631204
  0.6688427458287866  0.6623607624913200  0.5098804904868667
  0.7204713519770167  0.7729679205215583  0.5035812384274432
  0.8376514557580478  0.6675424591513978  0.5011845812455952
  0.8903174081488332  0.7783540086985414  0.4996044368374890
  0.0011611217996982  0.8333802042658695  0.4980163672921872
  0.0568340275509159  0.9450078471744238  0.4975257825839888
  0.1668344480207590  0.8338247611299634  0.4977422677439301
  0.2225048859611876  0.9456309219659024  0.4976131609414490
  0.3330518579885380  0.8343590236084556  0.4984729285048971
  0.3890463839182276  0.9456971348496079  0.4978195178681163
  0.4988049900776695  0.8313884879198957  0.5000690129047798
  0.5548254874250264  0.9430465981076659  0.4983849313129848
  0.6649772751510072  0.8295732789605094  0.5025137169833503
  0.7206087191179030  0.9408465209812650  0.4993985374748182
  0.8329017528524009  0.8313305726216547  0.4999947427237998
  0.8886035080835920  0.9431329613078476  0.4983842619725330
  0.5273666747841709  0.5555530563210169  0.5547175485295184
 
  0.00000000E+00  0.00000000E+00  0.00000000E+00
  0.00000000E+00  0.00000000E+00  0.00000000E+00
  0.00000000E+00  0.00000000E+00  0.00000000E+00
  0.00000000E+00  0.00000000E+00  0.00000000E+00
  0.00000000E+00  0.00000000E+00  0.00000000E+00
  0.00000000E+00  0.00000000E+00  0.00000000E+00
  0.00000000E+00  0.00000000E+00  0.00000000E+00
  0.00000000E+00  0.00000000E+00  0.00000000E+00
  0.00000000E+00  0.00000000E+00  0.00000000E+00
  0.00000000E+00  0.00000000E+00  0.00000000E+00
  0.00000000E+00  0.00000000E+00  0.00000000E+00
  0.00000000E+00  0.00000000E+00  0.00000000E+00
  0.00000000E+00  0.00000000E+00  0.00000000E+00
  0.00000000E+00  0.00000000E+00  0.00000000E+00
  0.00000000E+00  0.00000000E+00  0.00000000E+00
  0.00000000E+00  0.00000000E+00  0.00000000E+00
  0.00000000E+00  0.00000000E+00  0.00000000E+00
  0.00000000E+00  0.00000000E+00  0.00000000E+00
  0.00000000E+00  0.00000000E+00  0.00000000E+00
  0.00000000E+00  0.00000000E+00  0.00000000E+00
  0.00000000E+00  0.00000000E+00  0.00000000E+00
  0.00000000E+00  0.00000000E+00  0.00000000E+00
  0.00000000E+00  0.00000000E+00  0.00000000E+00
  0.00000000E+00  0.00000000E+00  0.00000000E+00
  0.00000000E+00  0.00000000E+00  0.00000000E+00
  0.00000000E+00  0.00000000E+00  0.00000000E+00
  0.00000000E+00  0.00000000E+00  0.00000000E+00
  0.00000000E+00  0.00000000E+00  0.00000000E+00
  0.00000000E+00  0.00000000E+00  0.00000000E+00
  0.00000000E+00  0.00000000E+00  0.00000000E+00
  0.00000000E+00  0.00000000E+00  0.00000000E+00
  0.00000000E+00  0.00000000E+00  0.00000000E+00
  0.00000000E+00  0.00000000E+00  0.00000000E+00
  0.00000000E+00  0.00000000E+00  0.00000000E+00
  0.00000000E+00  0.00000000E+00  0.00000000E+00
  0.00000000E+00  0.00000000E+00  0.00000000E+00
  0.00000000E+00  0.00000000E+00  0.00000000E+00
  0.00000000E+00  0.00000000E+00  0.00000000E+00
  0.00000000E+00  0.00000000E+00  0.00000000E+00
  0.00000000E+00  0.00000000E+00  0.00000000E+00
  0.00000000E+00  0.00000000E+00  0.00000000E+00
  0.00000000E+00  0.00000000E+00  0.00000000E+00
  0.00000000E+00  0.00000000E+00  0.00000000E+00
  0.00000000E+00  0.00000000E+00  0.00000000E+00
  0.00000000E+00  0.00000000E+00  0.00000000E+00
  0.00000000E+00  0.00000000E+00  0.00000000E+00
  0.00000000E+00  0.00000000E+00  0.00000000E+00
  0.00000000E+00  0.00000000E+00  0.00000000E+00
  0.00000000E+00  0.00000000E+00  0.00000000E+00
  0.00000000E+00  0.00000000E+00  0.00000000E+00
  0.00000000E+00  0.00000000E+00  0.00000000E+00
  0.00000000E+00  0.00000000E+00  0.00000000E+00
  0.00000000E+00  0.00000000E+00  0.00000000E+00
  0.00000000E+00  0.00000000E+00  0.00000000E+00
  0.00000000E+00  0.00000000E+00  0.00000000E+00
  0.00000000E+00  0.00000000E+00  0.00000000E+00
  0.00000000E+00  0.00000000E+00  0.00000000E+00
  0.00000000E+00  0.00000000E+00  0.00000000E+00
  0.00000000E+00  0.00000000E+00  0.00000000E+00
  0.00000000E+00  0.00000000E+00  0.00000000E+00
  0.00000000E+00  0.00000000E+00  0.00000000E+00
  0.00000000E+00  0.00000000E+00  0.00000000E+00
  0.00000000E+00  0.00000000E+00  0.00000000E+00
  0.00000000E+00  0.00000000E+00  0.00000000E+00
  0.00000000E+00  0.00000000E+00  0.00000000E+00
  0.00000000E+00  0.00000000E+00  0.00000000E+00
  0.00000000E+00  0.00000000E+00  0.00000000E+00
  0.00000000E+00  0.00000000E+00  0.00000000E+00
  0.00000000E+00  0.00000000E+00  0.00000000E+00
  0.00000000E+00  0.00000000E+00  0.00000000E+00
  0.00000000E+00  0.00000000E+00  0.00000000E+00
