POSCAR-clean
1.0
14.857851351 -0.0013713678 0.0
-7.4289256755 12.756850017 0.0
0.0 0.0 15.0
C N C Cr C O
59 1 10 1 1 1
Cartesian
-7.415515602 12.7486754033 7.2542274937
0.0113317537 1.4120797226 7.2550151371
2.4685916909 0.01880686 7.2531034583
2.4697092821 1.4365488603 7.2634004054
4.9425863551 0.0261345066 7.254991695
4.9504753763 1.4448245763 7.2648616247
-0.0005313822 12.7538563381 7.2551259691
7.4299124144 1.419420016 7.2540395795
2.482158735 12.7274080421 7.2629991213
9.9110054091 1.3915260436 7.2521909813
4.9631723503 12.7287471183 7.2644673498
12.3843799247 1.3906468206 7.2551058044
13.6182142545 2.1015855344 7.2562968614
-1.2447549029 3.5260314558 7.2663994443
1.2383785967 2.1470198665 7.2648364856
1.2370936601 3.5662141646 7.289967025
3.7133296542 2.1630526413 7.2805193145
3.7139101449 3.5847909655 7.3269942961
6.1923590776 2.143612131 7.2655231794
6.194832732 3.5672101514 7.2896809871
8.675244286 2.1102563441 7.2519528065
8.6798425084 3.5295225522 7.259538807
11.1463580136 2.1020127948 7.2533767494
11.1461952104 3.5230717055 7.255508625
12.3778063607 4.2347977938 7.2638491603
-2.4873828076 5.6624038912 7.2707549321
-0.0162121707 4.2452284208 7.2894926136
-0.0404646663 5.6614341103 7.3152258815
2.4738282092 4.3087501359 7.3398350543
2.428279578 5.7209983305 7.4306535078
4.9581953287 4.3080266526 7.3411828453
5.0060965146 5.7227127908 7.43374691
7.4469878796 4.2463822424 7.2841647856
7.4719988337 5.6630173387 7.3085020684
9.9132459486 4.2372772702 7.2577887388
9.9183504891 5.6622772339 7.2628087425
-3.7145102525 6.379244022 7.2630230724
-3.7160191494 7.8031981993 7.2630988903
-1.2685141426 6.3758756793 7.2944237554
-1.2689436074 7.7986684994 7.2940695353
1.1796824794 6.3684543488 7.3667231438
1.1791064053 7.804049792 7.3667720553
6.253557132 6.3709984047 7.3674154421
6.2561289746 7.8097411394 7.3669059623
8.6988412339 6.3766653579 7.2829191608
8.6991484351 7.8009527125 7.2825310786
-4.9449759301 8.5202852852 7.2627380096
-4.9487276517 9.949644726 7.257598785
-2.4890902346 8.5124870897 7.270814789
-2.4832910326 9.9379721441 7.2638153951
-0.0402980626 8.5118141477 7.3146073891
-0.0150096551 9.928630768 7.2893871199
2.4283882871 8.4508266272 7.431218524
2.475320086 9.8641803637 7.3396907073
5.0092975944 8.4508522303 7.4365657117
4.9628043371 9.8657165333 7.3411828848
7.4778541804 8.5181935794 7.3069899851
7.4501189481 9.9392416362 7.2842210037
-6.1784055997 10.6580155994 7.2605262708
-6.1829868121 12.063268214 7.2527573616
-3.71087432 10.649028678 7.2552447377
-3.7247056825 12.0676007193 7.253351032
-1.2480799746 10.6459984274 7.2665582271
-1.2480942924 12.0634437302 7.2564281733
1.2372024139 10.6065681086 7.2901236782
1.2394261648 12.0292248251 7.2649555894
3.7181120004 10.5851921775 7.3266684941
3.7226737699 12.0027553246 7.2801310207
6.1939522209 10.6038909014 7.2895167773
6.2072614563 12.0270513947 7.2649461427
3.71587789 7.0865591959 8.1128714907
3.71587789 7.0865591959 14.0928714907
3.3948639434 6.3607155032 14.9382086744