POSCAR-clean                            
   1.00000000000000     
    14.8611606303391302   -0.0038925078995232    0.0000000000000000
    -7.4305803151196237   12.7577832811496314    0.0000000000000000
     0.0000000000000000    0.0000000000000000   15.0000000000000000
   C    N    C    Cr
    58     1    11     1
Direct
  0.9998228035282141  0.9989012733317214  0.4976472380733521
  0.0559895991363324  0.1108463591729268  0.4977188529622945
  0.1671824707785974  0.0010352087602002  0.4975550161871801
  0.2228440240885692  0.1127915820878101  0.4982528293605679
  0.3340419827556620  0.0018284832569272  0.4977341483186139
  0.3899918335313576  0.1134435253739799  0.4983831883370388
  0.4999330993254307  0.9997317433446976  0.4977230003045245
  0.5557578404068848  0.1112705659531391  0.4976514431628132
  0.6657448462983483  0.9976971393882162  0.4982453911382754
  0.7215780568039522  0.1091154676843854  0.4975388367760284
  0.8323767194806612  0.9976600746867663  0.4983660818695119
  0.8880775219050747  0.1092811706012914  0.4977361544292807
  0.9991461138950404  0.1652040347470881  0.4978154907830017
  0.0544170914339060  0.2765756802051962  0.4984869989737791
  0.1672796195397202  0.1678865163021832  0.4983588557275321
  0.2230700696560484  0.2796923951046425  0.5000631324477758
  0.3348778005094825  0.1698706544784878  0.4993962267322612
  0.3907410233789974  0.2812795534765710  0.5024671395930788
  0.5007882862222176  0.1680804871026751  0.4984110790853681
  0.5568387631772796  0.2797810719543575  0.5000484190471326
  0.6666189409385970  0.1654684201554874  0.4975205256890020
  0.7226203244136927  0.2768492976683820  0.4980195319820083
  0.8327064676825616  0.1649131817510702  0.4976151981861552
  0.8884173468454122  0.2763703412121774  0.4977583557467427
  0.9991047199978299  0.3322279977438027  0.4983208221393705
  0.0545307141854442  0.4440640839069874  0.4987730274646153
  0.1654207837499904  0.3328636829848880  0.5000115214997028
  0.2192761161124926  0.4439336539284424  0.5017397054005752
  0.3353434646944430  0.3378615237450916  0.5033900269208158
  0.3876709803056536  0.4485926199787547  0.5094594437378527
  0.5027563929668851  0.3379237929518890  0.5035439868719683
  0.5615177464291735  0.4490848372001498  0.5097462221164683
  0.6677305785723037  0.3329826349933169  0.4996371384897525
  0.7248910190703960  0.4440855442385763  0.5012137866370329
  0.8334500235674936  0.3323886192709183  0.4979081018006453
  0.8896967072996785  0.4439293803778394  0.4982413472613965
  0.0001132848576478  0.5002829482833896  0.4982821355198606
  0.0559385167502236  0.6120044741778243  0.4982738595474800
  0.1645763641499655  0.4999281831191568  0.5003087703207799
  0.2202759213121967  0.6113519034071561  0.5003060884499202
  0.3289707834398359  0.4993533856745339  0.5052657471514564
  0.3852439428171324  0.6118245307328530  0.5052510783265943
  0.6709126570423352  0.4997481025848771  0.5052622743093674
  0.7275124632863782  0.6126199189052171  0.5052755007085064
  0.8355533320766088  0.5000559513271745  0.4995050659223619
  0.8911891468499842  0.6111588826396271  0.4994823308566303
  0.0010714714606295  0.6681343498624598  0.4982326020710231
  0.0561885186508682  0.7794319621186239  0.4979279117663576
  0.1660923173396958  0.6674214227727494  0.4987765362063321
  0.2217917048794598  0.7788423551037436  0.4983186535376433
  0.3308536915105592  0.6672731783845314  0.5017118598930150
  0.3879413015864282  0.7782689917208870  0.4999915316397784
  0.4946447006469190  0.6625087479032795  0.5093696141179641
  0.5532703326911339  0.7732336966540477  0.5034118322419596
  0.6684748679761384  0.6625784569768640  0.5098438768386022
  0.7210877957826972  0.7731408272913730  0.5035845808852341
  0.8375828386339599  0.6679791958738639  0.5011840938023190
  0.8915045797265965  0.7787996331973754  0.4996591656787070
  0.0014286766877792  0.8344568316185370  0.4980671143716240
  0.0561965965032915  0.9446568747688328  0.4975713578098967
  0.1668532844555522  0.8351304441332147  0.4977603608653365
  0.2234628966584031  0.9463392487818179  0.4976155207380767
  0.3328386806676139  0.8344037387768931  0.4984809958894504
  0.3890478824918386  0.9454969407988272  0.4978220683414892
  0.4988927960339646  0.8314195794335796  0.5000595802266389
  0.5548667625451293  0.9429874768798823  0.4983621093536207
  0.6653428127639086  0.8296740897249965  0.5024983881273336
  0.7205940352399723  0.9407557649869670  0.4993876040961084
  0.8338220182145332  0.8317492582234066  0.4999663871295350
  0.8884178971572264  0.9432440973191121  0.4983575688159340
  0.5274133955465257  0.5554518588508432  0.5549875482028241
 
  0.00000000E+00  0.00000000E+00  0.00000000E+00
  0.00000000E+00  0.00000000E+00  0.00000000E+00
  0.00000000E+00  0.00000000E+00  0.00000000E+00
  0.00000000E+00  0.00000000E+00  0.00000000E+00
  0.00000000E+00  0.00000000E+00  0.00000000E+00
  0.00000000E+00  0.00000000E+00  0.00000000E+00
  0.00000000E+00  0.00000000E+00  0.00000000E+00
  0.00000000E+00  0.00000000E+00  0.00000000E+00
  0.00000000E+00  0.00000000E+00  0.00000000E+00
  0.00000000E+00  0.00000000E+00  0.00000000E+00
  0.00000000E+00  0.00000000E+00  0.00000000E+00
  0.00000000E+00  0.00000000E+00  0.00000000E+00
  0.00000000E+00  0.00000000E+00  0.00000000E+00
  0.00000000E+00  0.00000000E+00  0.00000000E+00
  0.00000000E+00  0.00000000E+00  0.00000000E+00
  0.00000000E+00  0.00000000E+00  0.00000000E+00
  0.00000000E+00  0.00000000E+00  0.00000000E+00
  0.00000000E+00  0.00000000E+00  0.00000000E+00
  0.00000000E+00  0.00000000E+00  0.00000000E+00
  0.00000000E+00  0.00000000E+00  0.00000000E+00
  0.00000000E+00  0.00000000E+00  0.00000000E+00
  0.00000000E+00  0.00000000E+00  0.00000000E+00
  0.00000000E+00  0.00000000E+00  0.00000000E+00
  0.00000000E+00  0.00000000E+00  0.00000000E+00
  0.00000000E+00  0.00000000E+00  0.00000000E+00
  0.00000000E+00  0.00000000E+00  0.00000000E+00
  0.00000000E+00  0.00000000E+00  0.00000000E+00
  0.00000000E+00  0.00000000E+00  0.00000000E+00
  0.00000000E+00  0.00000000E+00  0.00000000E+00
  0.00000000E+00  0.00000000E+00  0.00000000E+00
  0.00000000E+00  0.00000000E+00  0.00000000E+00
  0.00000000E+00  0.00000000E+00  0.00000000E+00
  0.00000000E+00  0.00000000E+00  0.00000000E+00
  0.00000000E+00  0.00000000E+00  0.00000000E+00
  0.00000000E+00  0.00000000E+00  0.00000000E+00
  0.00000000E+00  0.00000000E+00  0.00000000E+00
  0.00000000E+00  0.00000000E+00  0.00000000E+00
  0.00000000E+00  0.00000000E+00  0.00000000E+00
  0.00000000E+00  0.00000000E+00  0.00000000E+00
  0.00000000E+00  0.00000000E+00  0.00000000E+00
  0.00000000E+00  0.00000000E+00  0.00000000E+00
  0.00000000E+00  0.00000000E+00  0.00000000E+00
  0.00000000E+00  0.00000000E+00  0.00000000E+00
  0.00000000E+00  0.00000000E+00  0.00000000E+00
  0.00000000E+00  0.00000000E+00  0.00000000E+00
  0.00000000E+00  0.00000000E+00  0.00000000E+00
  0.00000000E+00  0.00000000E+00  0.00000000E+00
  0.00000000E+00  0.00000000E+00  0.00000000E+00
  0.00000000E+00  0.00000000E+00  0.00000000E+00
  0.00000000E+00  0.00000000E+00  0.00000000E+00
  0.00000000E+00  0.00000000E+00  0.00000000E+00
  0.00000000E+00  0.00000000E+00  0.00000000E+00
  0.00000000E+00  0.00000000E+00  0.00000000E+00
  0.00000000E+00  0.00000000E+00  0.00000000E+00
  0.00000000E+00  0.00000000E+00  0.00000000E+00
  0.00000000E+00  0.00000000E+00  0.00000000E+00
  0.00000000E+00  0.00000000E+00  0.00000000E+00
  0.00000000E+00  0.00000000E+00  0.00000000E+00
  0.00000000E+00  0.00000000E+00  0.00000000E+00
  0.00000000E+00  0.00000000E+00  0.00000000E+00
  0.00000000E+00  0.00000000E+00  0.00000000E+00
  0.00000000E+00  0.00000000E+00  0.00000000E+00
  0.00000000E+00  0.00000000E+00  0.00000000E+00
  0.00000000E+00  0.00000000E+00  0.00000000E+00
  0.00000000E+00  0.00000000E+00  0.00000000E+00
  0.00000000E+00  0.00000000E+00  0.00000000E+00
  0.00000000E+00  0.00000000E+00  0.00000000E+00
  0.00000000E+00  0.00000000E+00  0.00000000E+00
  0.00000000E+00  0.00000000E+00  0.00000000E+00
  0.00000000E+00  0.00000000E+00  0.00000000E+00
  0.00000000E+00  0.00000000E+00  0.00000000E+00
