POSCAR-clean                            
   1.00000000000000     
    14.8605368174274712    0.0000118240276070    0.0000000000000000
    -7.4302684086637942   12.7563493949658771    0.0000000000000000
     0.0000000000000000    0.0000000000000000   15.0000000000000000
   C    N    C    Cr
    36     1    33     1
Direct
  0.0000698179703254  0.9998362133316462  0.4976300874532087
  0.0558216358621536  0.1116092960849076  0.4977148625831085
  0.1679808957938383  0.0019150846854960  0.4975392455192380
  0.2236186431041678  0.1134145629425952  0.4982507398332987
  0.3341777256852898  0.0019007892590663  0.4977399347429345
  0.3900450964222894  0.1133980406262863  0.4983853423759212
  0.5000040717774544  0.9998064432223326  0.4977188075336423
  0.5560269575071389  0.1115792655896864  0.4976460483405777
  0.6658020362795598  0.9978929860105149  0.4982555229749202
  0.7215879562735964  0.1093289077999044  0.4975402820720077
  0.8323558917850027  0.9979101100043277  0.4983853183529456
  0.8880022486510993  0.1093429047049613  0.4977433751613903
  0.9992054820953037  0.1659758836484177  0.4978166834450456
  0.0545150659256274  0.2774442905823069  0.4984950785356600
  0.1673648064993523  0.1681799502314909  0.4983625440486159
  0.2229196254971107  0.2797461211520881  0.5000516815384477
  0.3352103196568014  0.1701585136243557  0.4993808303143303
  0.3909160095834950  0.2815658853751452  0.5024931096309003
  0.5010604604177189  0.1681559647377005  0.4984131229169046
  0.5570707273765886  0.2797255672813035  0.5000294711069470
  0.6670081530636303  0.1659526251844020  0.4975182879263755
  0.7231589447688250  0.2774254244570602  0.4980288116654805
  0.8326421560768573  0.1650378538599388  0.4976087818439317
  0.8882492176718521  0.2762608149816995  0.4977375070980135
  0.9988068075028286  0.3329812787881386  0.4983065117747157
  0.0539207078724538  0.4444454625924407  0.4988327554357401
  0.1652398510010660  0.3329956631798860  0.5000008780932366
  0.2184001244773690  0.4438575485628726  0.5016334185622687
  0.3353060587444658  0.3378896783069197  0.5033984884907264
  0.3870321409072124  0.4485498287767331  0.5097007714663054
  0.5028527120781510  0.3378902268486991  0.5035553780929939
  0.5617904082165854  0.4485481270123505  0.5100188160052205
  0.6679895583772997  0.3329787237639648  0.4996385638745088
  0.7256786807915959  0.4438494546116137  0.5011420437075190
  0.8344024568854810  0.3329714646783409  0.4979062162839908
  0.8907387058123591  0.4444396520941686  0.4983460471095502
 -0.0000380456603564  0.4997093032875511  0.4983351006545046
  0.0552595042190294  0.6103010602052537  0.4982527736190732
  0.1638617842790580  0.5001220713032010  0.5003240578736279
  0.2205034385205378  0.6114206301785049  0.5003109747151411
  0.3283696077226065  0.4992461185137538  0.5052045933094130
  0.3850431950419608  0.6117154263157172  0.5052021850950154
  0.6711288131374157  0.4992436867161343  0.5051683484531282
  0.7269268304875199  0.6117168864093878  0.5051714378823392
  0.8364754749530724  0.5001189486104053  0.4995889657986400
  0.8911336510584207  0.6114191118084609  0.4995649182064894
  0.0010834555017219  0.6663289657332063  0.4982188269336550
  0.0568387161262167  0.7783259648128394  0.4978936861356739
  0.1654640109023432  0.6663274791186109  0.4987403280570094
  0.2217137923198397  0.7783196573260130  0.4983000295235628
  0.3306254592729659  0.6671692539952067  0.5016605119262804
  0.3879755107843709  0.7783387203813774  0.5000124803733234
  0.4943179291147954  0.6625050636876517  0.5096005576669523
  0.5529993944700633  0.7732631874666868  0.5033994004383683
  0.6684614209041538  0.6625062849807419  0.5099174992631141
  0.7205329277717192  0.7732627523065694  0.5035504268456852
  0.8367739238283333  0.6671753536264243  0.5011716528803630
  0.8906131174651006  0.7783533907137891  0.4996498657544816
  0.0014748327739819  0.8341022008183848  0.4980407735677321
  0.0567076184703808  0.9454766427859294  0.4975251288297405
  0.1673781393640895  0.8345250634154702  0.4977351984031752
  0.2232189120860027  0.9461945093901992  0.4976141238652785
  0.3328569509524837  0.8340855201126103  0.4985027100472791
  0.3890058984856331  0.9454558705146034  0.4978235626735682
  0.4987890804460574  0.8315101240928811  0.5000497504895889
  0.5548191947823971  0.9431392617082979  0.4983725832722869
  0.6649618738631135  0.8296554812601468  0.5025103497921728
  0.7206836021520532  0.9411038868335584  0.4993924341107790
  0.8329862981365665  0.8315312524133119  0.5000224188194672
  0.8885902917009754  0.9431652846392586  0.4984093416184522
  0.5277113972703653  0.5554248780536597  0.5544576162072989
 
  0.00000000E+00  0.00000000E+00  0.00000000E+00
  0.00000000E+00  0.00000000E+00  0.00000000E+00
  0.00000000E+00  0.00000000E+00  0.00000000E+00
  0.00000000E+00  0.00000000E+00  0.00000000E+00
  0.00000000E+00  0.00000000E+00  0.00000000E+00
  0.00000000E+00  0.00000000E+00  0.00000000E+00
  0.00000000E+00  0.00000000E+00  0.00000000E+00
  0.00000000E+00  0.00000000E+00  0.00000000E+00
  0.00000000E+00  0.00000000E+00  0.00000000E+00
  0.00000000E+00  0.00000000E+00  0.00000000E+00
  0.00000000E+00  0.00000000E+00  0.00000000E+00
  0.00000000E+00  0.00000000E+00  0.00000000E+00
  0.00000000E+00  0.00000000E+00  0.00000000E+00
  0.00000000E+00  0.00000000E+00  0.00000000E+00
  0.00000000E+00  0.00000000E+00  0.00000000E+00
  0.00000000E+00  0.00000000E+00  0.00000000E+00
  0.00000000E+00  0.00000000E+00  0.00000000E+00
  0.00000000E+00  0.00000000E+00  0.00000000E+00
  0.00000000E+00  0.00000000E+00  0.00000000E+00
  0.00000000E+00  0.00000000E+00  0.00000000E+00
  0.00000000E+00  0.00000000E+00  0.00000000E+00
  0.00000000E+00  0.00000000E+00  0.00000000E+00
  0.00000000E+00  0.00000000E+00  0.00000000E+00
  0.00000000E+00  0.00000000E+00  0.00000000E+00
  0.00000000E+00  0.00000000E+00  0.00000000E+00
  0.00000000E+00  0.00000000E+00  0.00000000E+00
  0.00000000E+00  0.00000000E+00  0.00000000E+00
  0.00000000E+00  0.00000000E+00  0.00000000E+00
  0.00000000E+00  0.00000000E+00  0.00000000E+00
  0.00000000E+00  0.00000000E+00  0.00000000E+00
  0.00000000E+00  0.00000000E+00  0.00000000E+00
  0.00000000E+00  0.00000000E+00  0.00000000E+00
  0.00000000E+00  0.00000000E+00  0.00000000E+00
  0.00000000E+00  0.00000000E+00  0.00000000E+00
  0.00000000E+00  0.00000000E+00  0.00000000E+00
  0.00000000E+00  0.00000000E+00  0.00000000E+00
  0.00000000E+00  0.00000000E+00  0.00000000E+00
  0.00000000E+00  0.00000000E+00  0.00000000E+00
  0.00000000E+00  0.00000000E+00  0.00000000E+00
  0.00000000E+00  0.00000000E+00  0.00000000E+00
  0.00000000E+00  0.00000000E+00  0.00000000E+00
  0.00000000E+00  0.00000000E+00  0.00000000E+00
  0.00000000E+00  0.00000000E+00  0.00000000E+00
  0.00000000E+00  0.00000000E+00  0.00000000E+00
  0.00000000E+00  0.00000000E+00  0.00000000E+00
  0.00000000E+00  0.00000000E+00  0.00000000E+00
  0.00000000E+00  0.00000000E+00  0.00000000E+00
  0.00000000E+00  0.00000000E+00  0.00000000E+00
  0.00000000E+00  0.00000000E+00  0.00000000E+00
  0.00000000E+00  0.00000000E+00  0.00000000E+00
  0.00000000E+00  0.00000000E+00  0.00000000E+00
  0.00000000E+00  0.00000000E+00  0.00000000E+00
  0.00000000E+00  0.00000000E+00  0.00000000E+00
  0.00000000E+00  0.00000000E+00  0.00000000E+00
  0.00000000E+00  0.00000000E+00  0.00000000E+00
  0.00000000E+00  0.00000000E+00  0.00000000E+00
  0.00000000E+00  0.00000000E+00  0.00000000E+00
  0.00000000E+00  0.00000000E+00  0.00000000E+00
  0.00000000E+00  0.00000000E+00  0.00000000E+00
  0.00000000E+00  0.00000000E+00  0.00000000E+00
  0.00000000E+00  0.00000000E+00  0.00000000E+00
  0.00000000E+00  0.00000000E+00  0.00000000E+00
  0.00000000E+00  0.00000000E+00  0.00000000E+00
  0.00000000E+00  0.00000000E+00  0.00000000E+00
  0.00000000E+00  0.00000000E+00  0.00000000E+00
  0.00000000E+00  0.00000000E+00  0.00000000E+00
  0.00000000E+00  0.00000000E+00  0.00000000E+00
  0.00000000E+00  0.00000000E+00  0.00000000E+00
  0.00000000E+00  0.00000000E+00  0.00000000E+00
  0.00000000E+00  0.00000000E+00  0.00000000E+00
  0.00000000E+00  0.00000000E+00  0.00000000E+00
