POSCAR-clean                            
   1.00000000000000     
    14.8578806982009617   -0.0001736020664687    0.0000000000000000
    -7.4289403490505510   12.7559991904742649    0.0000000000000000
     0.0000000000000000    0.0000000000000000   15.0000000000000000
   C    N    C    Cr
     9     1    60     1
Direct
  0.0000604467366969  0.0000029931849213  0.4976329502918588
  0.0553743992791098  0.1114093280133162  0.4977253071761396
  0.1680135465031256  0.0020911324597108  0.4975411335049955
  0.2235773896289714  0.1134530353341106  0.4982467308161702
  0.3344397636299448  0.0021774412604501  0.4977430405632575
  0.3905159249397059  0.1134283511646004  0.4983793179056732
  0.4998480172550472  0.9997621549576152  0.4977062607848310
  0.5565057134616254  0.1110362809850329  0.4976472390748015
  0.6662412075965918  0.9988489299144874  0.4983134764863237
  0.7216099044505597  0.1092434558344380  0.4975709603733023
  0.8322992574669072  0.9976878222123560  0.4983670561026372
  0.8868076877532118  0.1089221932561841  0.4977258344716162
  0.9984826953843822  0.1656150906614045  0.4978236481757250
  0.0541024539103674  0.2766025122863169  0.4984960206312508
  0.1672303861573994  0.1681203109212888  0.4983608818237499
  0.2229732050835054  0.2796887817330500  0.5000655067619064
  0.3354460855885648  0.1702678934217943  0.4994022598290755
  0.3909060758852831  0.2814461298446744  0.5025488279726105
  0.5016607274592602  0.1681513658478622  0.4983931723619293
  0.5570720175112953  0.2795844320208261  0.5000535494330336
  0.6672611744761952  0.1650250232595596  0.4975851884259370
  0.7228681513552644  0.2759800465920250  0.4980634967160853
  0.8314633855686182  0.1643401573135108  0.4976284355971288
  0.8872805981602809  0.2756398492970007  0.4977674184069087
  0.9985162776629934  0.3315192497039021  0.4983306285521394
  0.0541739632913050  0.4434379962053612  0.4987801407205623
  0.1653304261340907  0.3328571585273892  0.4999995404634134
  0.2191126674751231  0.4438330018328998  0.5017169588132901
  0.3353745899994394  0.3378669431931698  0.5034032150527636
  0.3875178873958944  0.4485960789985128  0.5093930876890553
  0.5028914544545415  0.3378656064922296  0.5036042802552387
  0.5613533405863507  0.4485584776525471  0.5097642320538114
  0.6675918105246836  0.3321872815508371  0.4996406810157765
  0.7248726119152593  0.4434679974170379  0.5011846087507408
  0.8334626196975776  0.3323793639470836  0.4979152304902286
  0.8895288153366465  0.4437082224881834  0.4982535694426602
  0.0000640708537674  0.4997382747670756  0.4982771174606739
  0.0557640988217756  0.6112173009583870  0.4982797808728563
  0.1643842519400494  0.4996203698318809  0.5003064784390290
  0.2203825328511897  0.6113515892994243  0.5003007293810242
  0.3290162476165506  0.4992993565420392  0.5052650766140374
  0.3854220433250646  0.6119789686476480  0.5052209585291649
  0.6706025774594835  0.4990926916482437  0.5051632418321148
  0.7268447558331204  0.6118487201037723  0.5051618246733227
  0.8353709002323697  0.4997321039632396  0.4995504752464797
  0.8911172184109759  0.6111866804011257  0.4995480690864440
  0.0012562411075763  0.6672219480286472  0.4982566651934377
  0.0567247759715528  0.7789746475319319  0.4979086355498836
  0.1663315993577470  0.6672937027826009  0.4987806470485623
  0.2226137884026755  0.7789636486356954  0.4983183885657141
  0.3311124673207999  0.6674832976124563  0.5016613377261265
  0.3885353989206450  0.7786704060162961  0.4999878761140906
  0.4946631607203784  0.6626979731444180  0.5094544384447133
  0.5532160650275983  0.7736136900855115  0.5033948007235267
  0.6682212006192216  0.6627504443551970  0.5098455619603683
  0.7204356637891394  0.7735815140728164  0.5035717583317449
  0.8364795968708947  0.6672155425944553  0.5011760248265560
  0.8903019760351114  0.7782854467628084  0.4996324782841910
  0.0013880331012146  0.8345014361280363  0.4980298753947920
  0.0567087118467029  0.9457940006740913  0.4975301497122331
  0.1676151375916533  0.8349173427662748  0.4977465923106337
  0.2233358469376725  0.9464006578661426  0.4976176856079206
  0.3333724314278896  0.8343951682948543  0.4984839459773767
  0.3893974001616343  0.9458077207267905  0.4978178888794815
  0.4997225064751802  0.8321039449275460  0.5000732641290284
  0.5556747000305293  0.9440881497584925  0.4983716897013792
  0.6648430617353043  0.8303505814419196  0.5025100621597645
  0.7208720065551191  0.9419315768970407  0.4994489425941637
  0.8326020392353257  0.8314316314687247  0.5000394675445250
  0.8883030718959262  0.9431665803651299  0.4983900861063617
  0.5277579029192339  0.5557107032431503  0.5547640770049327
 
  0.00000000E+00  0.00000000E+00  0.00000000E+00
  0.00000000E+00  0.00000000E+00  0.00000000E+00
  0.00000000E+00  0.00000000E+00  0.00000000E+00
  0.00000000E+00  0.00000000E+00  0.00000000E+00
  0.00000000E+00  0.00000000E+00  0.00000000E+00
  0.00000000E+00  0.00000000E+00  0.00000000E+00
  0.00000000E+00  0.00000000E+00  0.00000000E+00
  0.00000000E+00  0.00000000E+00  0.00000000E+00
  0.00000000E+00  0.00000000E+00  0.00000000E+00
  0.00000000E+00  0.00000000E+00  0.00000000E+00
  0.00000000E+00  0.00000000E+00  0.00000000E+00
  0.00000000E+00  0.00000000E+00  0.00000000E+00
  0.00000000E+00  0.00000000E+00  0.00000000E+00
  0.00000000E+00  0.00000000E+00  0.00000000E+00
  0.00000000E+00  0.00000000E+00  0.00000000E+00
  0.00000000E+00  0.00000000E+00  0.00000000E+00
  0.00000000E+00  0.00000000E+00  0.00000000E+00
  0.00000000E+00  0.00000000E+00  0.00000000E+00
  0.00000000E+00  0.00000000E+00  0.00000000E+00
  0.00000000E+00  0.00000000E+00  0.00000000E+00
  0.00000000E+00  0.00000000E+00  0.00000000E+00
  0.00000000E+00  0.00000000E+00  0.00000000E+00
  0.00000000E+00  0.00000000E+00  0.00000000E+00
  0.00000000E+00  0.00000000E+00  0.00000000E+00
  0.00000000E+00  0.00000000E+00  0.00000000E+00
  0.00000000E+00  0.00000000E+00  0.00000000E+00
  0.00000000E+00  0.00000000E+00  0.00000000E+00
  0.00000000E+00  0.00000000E+00  0.00000000E+00
  0.00000000E+00  0.00000000E+00  0.00000000E+00
  0.00000000E+00  0.00000000E+00  0.00000000E+00
  0.00000000E+00  0.00000000E+00  0.00000000E+00
  0.00000000E+00  0.00000000E+00  0.00000000E+00
  0.00000000E+00  0.00000000E+00  0.00000000E+00
  0.00000000E+00  0.00000000E+00  0.00000000E+00
  0.00000000E+00  0.00000000E+00  0.00000000E+00
  0.00000000E+00  0.00000000E+00  0.00000000E+00
  0.00000000E+00  0.00000000E+00  0.00000000E+00
  0.00000000E+00  0.00000000E+00  0.00000000E+00
  0.00000000E+00  0.00000000E+00  0.00000000E+00
  0.00000000E+00  0.00000000E+00  0.00000000E+00
  0.00000000E+00  0.00000000E+00  0.00000000E+00
  0.00000000E+00  0.00000000E+00  0.00000000E+00
  0.00000000E+00  0.00000000E+00  0.00000000E+00
  0.00000000E+00  0.00000000E+00  0.00000000E+00
  0.00000000E+00  0.00000000E+00  0.00000000E+00
  0.00000000E+00  0.00000000E+00  0.00000000E+00
  0.00000000E+00  0.00000000E+00  0.00000000E+00
  0.00000000E+00  0.00000000E+00  0.00000000E+00
  0.00000000E+00  0.00000000E+00  0.00000000E+00
  0.00000000E+00  0.00000000E+00  0.00000000E+00
  0.00000000E+00  0.00000000E+00  0.00000000E+00
  0.00000000E+00  0.00000000E+00  0.00000000E+00
  0.00000000E+00  0.00000000E+00  0.00000000E+00
  0.00000000E+00  0.00000000E+00  0.00000000E+00
  0.00000000E+00  0.00000000E+00  0.00000000E+00
  0.00000000E+00  0.00000000E+00  0.00000000E+00
  0.00000000E+00  0.00000000E+00  0.00000000E+00
  0.00000000E+00  0.00000000E+00  0.00000000E+00
  0.00000000E+00  0.00000000E+00  0.00000000E+00
  0.00000000E+00  0.00000000E+00  0.00000000E+00
  0.00000000E+00  0.00000000E+00  0.00000000E+00
  0.00000000E+00  0.00000000E+00  0.00000000E+00
  0.00000000E+00  0.00000000E+00  0.00000000E+00
  0.00000000E+00  0.00000000E+00  0.00000000E+00
  0.00000000E+00  0.00000000E+00  0.00000000E+00
  0.00000000E+00  0.00000000E+00  0.00000000E+00
  0.00000000E+00  0.00000000E+00  0.00000000E+00
  0.00000000E+00  0.00000000E+00  0.00000000E+00
  0.00000000E+00  0.00000000E+00  0.00000000E+00
  0.00000000E+00  0.00000000E+00  0.00000000E+00
  0.00000000E+00  0.00000000E+00  0.00000000E+00
