POSCAR-clean                            
   1.00000000000000     
    14.8649094067561922    0.0036276381504164    0.0000000000000000
    -7.4324547033281405   12.7489017342724189    0.0000000000000000
     0.0000000000000000    0.0000000000000000   15.0000000000000000
   C    N    C    Cr
    56     1    13     1
Direct
  0.9997402705458283  0.9993146640888473  0.4976081328748393
  0.0556228365242876  0.1110975062906468  0.4977445934956083
  0.1676294774216487  0.0015851715628104  0.4975693576699141
  0.2234821448244889  0.1131334219985709  0.4982825887811935
  0.3341597230269928  0.0019633372210861  0.4976786915053437
  0.3900207566319107  0.1134321307108054  0.4983874904243335
  0.5000471841186774  0.9999359573563419  0.4977508020539403
  0.5558778170254677  0.1116688781922439  0.4976696251012727
  0.6660608049679401  0.9977656185851271  0.4982932223114926
  0.7217661390915301  0.1092751523314649  0.4975464280183711
  0.8323333858020991  0.9974356802617719  0.4983671471224043
  0.8879204569302087  0.1090427016361090  0.4977053837321228
  0.9991773264840524  0.1654449286113575  0.4977544914999152
  0.0544969130720409  0.2767523044744999  0.4984599421443724
  0.1671841390636960  0.1677701576349984  0.4984326529034520
  0.2228719562516037  0.2793674484705467  0.5000483513947803
  0.3353099107808763  0.1702121054652426  0.4993425013133460
  0.3912434172071977  0.2818161520890682  0.5023163130700431
  0.5010424363601553  0.1685039153179982  0.4984235876779077
  0.5570507930497693  0.2803390127331742  0.5000069199282812
  0.6667611753076587  0.1656882156089104  0.4975466648752633
  0.7226400562320083  0.2769366196669922  0.4980543256513540
  0.8326578913027814  0.1649611481697018  0.4975742798830316
  0.8883841448163777  0.2766490250786065  0.4976867471792698
  0.9991444619941877  0.3324102154512807  0.4982097696630178
  0.0544628931486823  0.4439215406979598  0.4986613215550796
  0.1653966056460872  0.3328205690495225  0.5001408528412550
  0.2192665492698854  0.4439869842576015  0.5020194261510875
  0.3352643839412914  0.3374946470777764  0.5031586545748316
  0.3875367492377421  0.4480727067979142  0.5092957441255379
  0.5034743898214571  0.3392708329846437  0.5035946634855868
  0.5624700270131877  0.4506804446764818  0.5102577802901285
  0.6678764834587808  0.3331388272045100  0.4995580363299695
  0.7251139473897172  0.4441643750660108  0.5008629471885018
  0.8335126207997370  0.3327437282526305  0.4979202938657282
  0.8897999367653920  0.4445103687558806  0.4982849147126470
  0.9999557554673435  0.5000079846596310  0.4982567039659813
  0.0552125833548269  0.6113313468809844  0.4983185708888472
  0.1646244225738074  0.4999305353725839  0.5003633549337044
  0.2201717187674789  0.6113060761862695  0.5003191741025007
  0.3291251213536067  0.4993687168200713  0.5053478150080256
  0.3852122177376231  0.6117571416366830  0.5052193631261611
  0.6720150251390823  0.5001646297773030  0.5051078847546104
  0.7284420075754128  0.6126297816013810  0.5056758271313058
  0.8354413296113454  0.5007935029143958  0.4994206415940669
  0.8908482221453089  0.6118428167153002  0.4994369393244912
  0.0008079555820614  0.6676786716890367  0.4984087826118902
  0.0568570189027188  0.7788730754255822  0.4980645599150322
  0.1658807424438272  0.6673445291258850  0.4987046265784025
  0.2223045711201120  0.7787504668686543  0.4982146388165596
  0.3307403753804695  0.6671429292794453  0.5018455448953809
  0.3880852169689450  0.7781906678500494  0.5000661812598705
  0.4948625034764463  0.6629305432897640  0.5090520166481466
  0.5532818654867455  0.7733374009212428  0.5032696781730424
  0.6691528471347826  0.6619353177892320  0.5112475003115003
  0.7201852234587077  0.7726819677222928  0.5037168159335040
  0.8366121988853057  0.6669459151510427  0.5007625780286835
  0.8899400617948670  0.7770669067809773  0.4994051339265207
  0.0006255701907321  0.8333328445618043  0.4981719206907109
  0.0559932980377341  0.9449565378288403  0.4976043988082957
  0.1673493819247119  0.8346587835544775  0.4977211317667817
  0.2231408079395179  0.9462285789792028  0.4975629816342050
  0.3332235597734113  0.8343264016390940  0.4984325188891288
  0.3891669543283283  0.9456026160202528  0.4977609638779869
  0.4990443776093830  0.8315691826271154  0.5000983043626563
  0.5549819832326831  0.9431286818836595  0.4984623445271060
  0.6651793279968744  0.8292988227193754  0.5024260046483567
  0.7208659207981466  0.9409177517614775  0.4993423891228683
  0.8323479214688725  0.8301083368660306  0.4996173533917912
  0.8884366593016968  0.9422793312946054  0.4982143125153390
  0.5253052088285509  0.5554946141067115  0.5548063774546043
 
  0.00000000E+00  0.00000000E+00  0.00000000E+00
  0.00000000E+00  0.00000000E+00  0.00000000E+00
  0.00000000E+00  0.00000000E+00  0.00000000E+00
  0.00000000E+00  0.00000000E+00  0.00000000E+00
  0.00000000E+00  0.00000000E+00  0.00000000E+00
  0.00000000E+00  0.00000000E+00  0.00000000E+00
  0.00000000E+00  0.00000000E+00  0.00000000E+00
  0.00000000E+00  0.00000000E+00  0.00000000E+00
  0.00000000E+00  0.00000000E+00  0.00000000E+00
  0.00000000E+00  0.00000000E+00  0.00000000E+00
  0.00000000E+00  0.00000000E+00  0.00000000E+00
  0.00000000E+00  0.00000000E+00  0.00000000E+00
  0.00000000E+00  0.00000000E+00  0.00000000E+00
  0.00000000E+00  0.00000000E+00  0.00000000E+00
  0.00000000E+00  0.00000000E+00  0.00000000E+00
  0.00000000E+00  0.00000000E+00  0.00000000E+00
  0.00000000E+00  0.00000000E+00  0.00000000E+00
  0.00000000E+00  0.00000000E+00  0.00000000E+00
  0.00000000E+00  0.00000000E+00  0.00000000E+00
  0.00000000E+00  0.00000000E+00  0.00000000E+00
  0.00000000E+00  0.00000000E+00  0.00000000E+00
  0.00000000E+00  0.00000000E+00  0.00000000E+00
  0.00000000E+00  0.00000000E+00  0.00000000E+00
  0.00000000E+00  0.00000000E+00  0.00000000E+00
  0.00000000E+00  0.00000000E+00  0.00000000E+00
  0.00000000E+00  0.00000000E+00  0.00000000E+00
  0.00000000E+00  0.00000000E+00  0.00000000E+00
  0.00000000E+00  0.00000000E+00  0.00000000E+00
  0.00000000E+00  0.00000000E+00  0.00000000E+00
  0.00000000E+00  0.00000000E+00  0.00000000E+00
  0.00000000E+00  0.00000000E+00  0.00000000E+00
  0.00000000E+00  0.00000000E+00  0.00000000E+00
  0.00000000E+00  0.00000000E+00  0.00000000E+00
  0.00000000E+00  0.00000000E+00  0.00000000E+00
  0.00000000E+00  0.00000000E+00  0.00000000E+00
  0.00000000E+00  0.00000000E+00  0.00000000E+00
  0.00000000E+00  0.00000000E+00  0.00000000E+00
  0.00000000E+00  0.00000000E+00  0.00000000E+00
  0.00000000E+00  0.00000000E+00  0.00000000E+00
  0.00000000E+00  0.00000000E+00  0.00000000E+00
  0.00000000E+00  0.00000000E+00  0.00000000E+00
  0.00000000E+00  0.00000000E+00  0.00000000E+00
  0.00000000E+00  0.00000000E+00  0.00000000E+00
  0.00000000E+00  0.00000000E+00  0.00000000E+00
  0.00000000E+00  0.00000000E+00  0.00000000E+00
  0.00000000E+00  0.00000000E+00  0.00000000E+00
  0.00000000E+00  0.00000000E+00  0.00000000E+00
  0.00000000E+00  0.00000000E+00  0.00000000E+00
  0.00000000E+00  0.00000000E+00  0.00000000E+00
  0.00000000E+00  0.00000000E+00  0.00000000E+00
  0.00000000E+00  0.00000000E+00  0.00000000E+00
  0.00000000E+00  0.00000000E+00  0.00000000E+00
  0.00000000E+00  0.00000000E+00  0.00000000E+00
  0.00000000E+00  0.00000000E+00  0.00000000E+00
  0.00000000E+00  0.00000000E+00  0.00000000E+00
  0.00000000E+00  0.00000000E+00  0.00000000E+00
  0.00000000E+00  0.00000000E+00  0.00000000E+00
  0.00000000E+00  0.00000000E+00  0.00000000E+00
  0.00000000E+00  0.00000000E+00  0.00000000E+00
  0.00000000E+00  0.00000000E+00  0.00000000E+00
  0.00000000E+00  0.00000000E+00  0.00000000E+00
  0.00000000E+00  0.00000000E+00  0.00000000E+00
  0.00000000E+00  0.00000000E+00  0.00000000E+00
  0.00000000E+00  0.00000000E+00  0.00000000E+00
  0.00000000E+00  0.00000000E+00  0.00000000E+00
  0.00000000E+00  0.00000000E+00  0.00000000E+00
  0.00000000E+00  0.00000000E+00  0.00000000E+00
  0.00000000E+00  0.00000000E+00  0.00000000E+00
  0.00000000E+00  0.00000000E+00  0.00000000E+00
  0.00000000E+00  0.00000000E+00  0.00000000E+00
  0.00000000E+00  0.00000000E+00  0.00000000E+00
