POSCAR-c3n4
1.0
13.8434242346 -0.190740474 0.0
-6.9217121174 11.6951909939 0.0
0.0 0.0 15.0
C N Ge
24 32 1
Cartesian
-0.0149534066 2.4769891554 0.7149256725
1.2206073451 4.6076052329 0.8153350965
-1.2748902218 4.5620640663 0.7272739605
5.7506808922 0.6612841331 1.9033698855
3.4880543574 4.6063553697 0.505845303
1.1858997874 0.5954256003 1.0481832195
-3.5934096387 8.3075480293 1.576482474
-2.2245325413 10.355229205 1.8359817375
-4.6828519457 10.450701721 1.789843773
2.4058454244 6.3266954371 1.8465205155
0.039411223 10.2676395571 1.652513478
-2.5491802681 6.3234371289 1.528031199
6.9865645411 2.4896475991 1.408531005
8.1038847101 4.4085915022 0.3162041865
5.7203206549 4.4952637194 0.849887589
12.644133914 0.432429271 1.2284664285
10.347324234 4.3410960104 0.226163877
8.1675290702 0.6481928627 1.998438555
3.5665748784 8.2004714627 2.2866950625
4.7235456933 10.3431224429 2.161164978
2.2592693015 10.321510029 2.1378687315
9.0937862697 6.4034777797 0.625606506
6.9701756675 10.3637382575 2.3379311055
4.7618326573 6.3682889142 1.6658673945
-0.0143545899 3.8913851712 0.6933886185
1.1663688332 1.8511557542 0.632244279
4.6425652415 -0.0430099494 2.150328249
4.6447862542 4.0245746302 0.203755419
2.2750909497 4.1532361166 0.164256501
5.7767220953 1.9705011011 1.715238867
-4.6427719793 11.5271337967 1.017811542
0.0168260121 0.0213869775 1.5605905965
-3.4717785011 9.6853226633 1.8218568405
-2.6112404649 7.5209719922 2.084783052
1.2200524639 5.6805851381 1.691222688
1.2112002572 9.6202252249 1.663814622
-1.1295054931 9.6356154515 1.5085692405
2.42268065 7.4836748111 2.4904696785
-1.385538431 5.6293009823 1.594704927
10.2499101978 5.6117700653 0.8577830535
6.9533792998 3.7339184889 0.757728924
8.1771848393 1.9523433611 1.7465290395
4.6249414916 11.3763069806 1.335701214
-2.2575552407 4.0690022757 0.0
9.2113741695 3.7029417659 0.0108925605
12.6314649188 1.6937471511 0.8449265295
9.2231181554 -0.0662462615 2.410177143
6.9619585121 -0.0508772127 1.792600794
3.4908331673 9.6061589951 2.330951307
4.7428573248 7.6545012503 2.0049332745
8.0122898217 5.7668743313 0.254162844
-5.6848528816 9.9729164739 2.548121586
5.8067784991 9.8907843407 2.8087085865
-4.6291049666 7.9199208049 0.836284956
5.840437551 5.6182614068 1.5752746065
3.5267159812 5.7721550817 1.3253821065
-0.1339422181 6.8791707283 2.684885145