POSCAR-c3n4                             
  0.80000000000000004     
    13.8434242346000005   -0.1907404740000000    0.0000000000000000
    -6.9217121174000003   11.6951909939000007    0.0000000000000000
     0.0000000000000000    0.0000000000000000   15.0000000000000000
   C    N    Ge   C    O 
    24    32     1     1     1
Direct
  0.0813996638215215  0.2206312184628345  0.3966300823686240
  0.2689856512384381  0.3397716185249422  0.2800497227609569
  0.1272898295712679  0.4383274581857748  0.3038617461890354
  0.4370745712742803  0.0935609640568984  0.6631426765601702
  0.4198758629792891  0.2732978518234574  0.3278930913044533
  0.1545944063078863  0.1899373673490246  0.5687162259983225
  0.0752898139932867  0.7487959097023307  0.5271278389606877
  0.2188785903580097  0.8818571565464453  0.6801203679954142
  0.2223854882094614  0.1011591140237087  0.7048964786824499
  0.4405588393412785  0.4972259106478134  0.3852114737302230
  0.3974248890293524  0.8465046361238393  0.6869527794004213
  0.1047044525429115  0.5918179421508398  0.4239010035396191
  0.6130738631399950  0.2419534061936872  0.5462052969227784
  0.8071072962808898  0.4931292381875139  0.2450701251331395
  0.6247965462169702  0.2877190251072506  0.3383615785745775
  0.9363391336730800  0.0071453241015504  0.4809126182807049
  0.0179835325256263  0.5443759403634019  0.2325692933093251
  0.6149995509180641  0.0453106783348716  0.6046347498021518
  0.5765402307330234  0.6144183930516078  0.5414706563789693
  0.7861514746743623  0.8305730306164278  0.5933211985549107
  0.5800344565301572  0.8216307728805035  0.6341329611075039
  0.9363429719952450  0.6531957264988932  0.3723170583887878
  0.9923009494281985  0.9828801830338989  0.6747040037495182
  0.5938150130810627  0.4321130250811649  0.4685672469237190
  0.1302776842914071  0.3086152141945178  0.2972898706772256
  0.1707316537675823  0.2816740824876618  0.4866625661615487
  0.3053655400333284  0.0383942568465940  0.7143292697242600
  0.4890285460397692  0.2081395186558908  0.3061600546463126
  0.2912845588436141  0.2339745947927554  0.2859128967707605
  0.5062412632741484  0.2198792650009764  0.6163647019936818
  0.2587898866040916  0.2130622028810620  0.6360810174390750
  0.0257708770493039  0.0612581733398443  0.5746235075297363
  0.1276604341893020  0.8575491250143656  0.6038113833369536
  0.1309996815649725  0.6618966174614869  0.5187657125333587
  0.3628907386449072  0.4868188596406355  0.2999247368266751
  0.4495147898893350  0.7597138574380438  0.6740508134394574
  0.2659075780582469  0.7964375906586980  0.7143139305453445
  0.4630680150559456  0.5867029634552310  0.4734036228856198
  0.1475333888807313  0.4978898180358016  0.4085423226487634
  0.0290336382382890  0.6046809683697205  0.3404544598637997
  0.7172887697716348  0.3568480791907618  0.2605063201652484
  0.6795528943944404  0.1692990045623262  0.5473305737405028
  0.8200672658062373  0.8804113022576630  0.4882699422512644
  0.0910832332837330  0.4772029762475185  0.2136666887704735
  0.9142487336560947  0.5230312355187579  0.1678874633654388
  0.9714030655393344  0.0903272261317341  0.3885644272368722
  0.6678054494214578  0.9615553680857971  0.6073392194985985
  0.4818416952659419  0.9949968517919530  0.6537443577766453
  0.6375222380759382  0.7368294480409503  0.6092456495364331
  0.6443665340179763  0.5440462217211817  0.5369923825670639
  0.8171881256599036  0.5974902049960207  0.3178475012665842
  0.0935575337954688  0.0172892690348192  0.7493316263418777
  0.8609623224433776  0.8706042936631349  0.6860700156378527
  0.9768749386584332  0.7429406558950618  0.4601766268881775
  0.6442650438998854  0.3397057766307441  0.4619411718931872
  0.4832787335626989  0.3974700544295544  0.3962347762250928
  0.2605477921864150  0.5068060039558162  0.5533595217226477
  0.2988620567224842  0.4501114649054330  0.8400730566991683
  0.2673595031429414  0.4543380752640758  0.9299575366511803

  0.00000000E+00  0.00000000E+00  0.00000000E+00
  0.00000000E+00  0.00000000E+00  0.00000000E+00
  0.00000000E+00  0.00000000E+00  0.00000000E+00
  0.00000000E+00  0.00000000E+00  0.00000000E+00
  0.00000000E+00  0.00000000E+00  0.00000000E+00
  0.00000000E+00  0.00000000E+00  0.00000000E+00
  0.00000000E+00  0.00000000E+00  0.00000000E+00
  0.00000000E+00  0.00000000E+00  0.00000000E+00
  0.00000000E+00  0.00000000E+00  0.00000000E+00
  0.00000000E+00  0.00000000E+00  0.00000000E+00
  0.00000000E+00  0.00000000E+00  0.00000000E+00
  0.00000000E+00  0.00000000E+00  0.00000000E+00
  0.00000000E+00  0.00000000E+00  0.00000000E+00
  0.00000000E+00  0.00000000E+00  0.00000000E+00
  0.00000000E+00  0.00000000E+00  0.00000000E+00
  0.00000000E+00  0.00000000E+00  0.00000000E+00
  0.00000000E+00  0.00000000E+00  0.00000000E+00
  0.00000000E+00  0.00000000E+00  0.00000000E+00
  0.00000000E+00  0.00000000E+00  0.00000000E+00
  0.00000000E+00  0.00000000E+00  0.00000000E+00
  0.00000000E+00  0.00000000E+00  0.00000000E+00
  0.00000000E+00  0.00000000E+00  0.00000000E+00
  0.00000000E+00  0.00000000E+00  0.00000000E+00
  0.00000000E+00  0.00000000E+00  0.00000000E+00
  0.00000000E+00  0.00000000E+00  0.00000000E+00
  0.00000000E+00  0.00000000E+00  0.00000000E+00
  0.00000000E+00  0.00000000E+00  0.00000000E+00
  0.00000000E+00  0.00000000E+00  0.00000000E+00
  0.00000000E+00  0.00000000E+00  0.00000000E+00
  0.00000000E+00  0.00000000E+00  0.00000000E+00
  0.00000000E+00  0.00000000E+00  0.00000000E+00
  0.00000000E+00  0.00000000E+00  0.00000000E+00
  0.00000000E+00  0.00000000E+00  0.00000000E+00
  0.00000000E+00  0.00000000E+00  0.00000000E+00
  0.00000000E+00  0.00000000E+00  0.00000000E+00
  0.00000000E+00  0.00000000E+00  0.00000000E+00
  0.00000000E+00  0.00000000E+00  0.00000000E+00
  0.00000000E+00  0.00000000E+00  0.00000000E+00
  0.00000000E+00  0.00000000E+00  0.00000000E+00
  0.00000000E+00  0.00000000E+00  0.00000000E+00
  0.00000000E+00  0.00000000E+00  0.00000000E+00
  0.00000000E+00  0.00000000E+00  0.00000000E+00
  0.00000000E+00  0.00000000E+00  0.00000000E+00
  0.00000000E+00  0.00000000E+00  0.00000000E+00
  0.00000000E+00  0.00000000E+00  0.00000000E+00
  0.00000000E+00  0.00000000E+00  0.00000000E+00
  0.00000000E+00  0.00000000E+00  0.00000000E+00
  0.00000000E+00  0.00000000E+00  0.00000000E+00
  0.00000000E+00  0.00000000E+00  0.00000000E+00
  0.00000000E+00  0.00000000E+00  0.00000000E+00
  0.00000000E+00  0.00000000E+00  0.00000000E+00
  0.00000000E+00  0.00000000E+00  0.00000000E+00
  0.00000000E+00  0.00000000E+00  0.00000000E+00
  0.00000000E+00  0.00000000E+00  0.00000000E+00
  0.00000000E+00  0.00000000E+00  0.00000000E+00
  0.00000000E+00  0.00000000E+00  0.00000000E+00
  0.00000000E+00  0.00000000E+00  0.00000000E+00
  0.00000000E+00  0.00000000E+00  0.00000000E+00
  0.00000000E+00  0.00000000E+00  0.00000000E+00
