POSCAR-clean
1.0
14.8611606303 -0.0038925079 0.0
-7.4305803151 12.7577832811 0.0
0.0 0.0 15.0
C N C Cr C O
58 1 11 1 1 1
Cartesian
7.4361111467 12.7398741463 7.3497104435
0.0084176519 1.4139358879 7.3507846668
2.476833351 0.0125562099 7.3483271152
2.4736139279 1.4381031381 7.3587943128
4.9506648713 0.0220271321 7.3510140972
4.9527800561 1.4457698651 7.3607496975
0.000999081 12.7524149273 7.350846877
7.4324016608 1.4174024742 7.3497735198
2.4802723753 12.7258124675 7.3586827395
9.9126961632 1.3892627411 7.348084424
4.956890821 12.7246909882 7.3604931004
12.3858401901 1.3907286425 7.3510441888
13.6209090432 2.1037480883 7.3522342341
-1.2464166681 3.5282807699 7.362306857
1.238475053 2.1412086536 7.3603847083
1.2368033316 3.5673866601 7.3859488591
3.7144352436 2.1658694812 7.3759452734
3.7167948002 3.5869826222 7.4220089663
6.1933596045 2.1423851059 7.3611680587
6.196334579 3.5672187829 7.3857281581
8.6772047749 2.1084154247 7.3478097577
8.6818257744 3.5291705359 7.3552948521
11.1495839321 2.1006853165 7.3492298452
11.1493208812 3.522414747 7.3513772086
12.3792089103 4.2346037721 7.3598142045
-2.4892641377 5.6650610842 7.3665972844
-0.0150254915 4.245958828 7.3851746949
-0.0399870862 5.662755814 7.4110974534
2.4730859076 4.3090587719 7.4358522762
2.4279372185 5.7215384149 7.5268935285
4.9605736299 4.3092015328 7.4381616755
5.0078444754 5.7271413156 7.5311952041
7.4489971731 4.2455211471 7.3795589497
7.4729085706 5.6627254877 7.403208672
9.9161943463 4.237297759 7.3536233994
9.9232727643 5.6600916755 7.3586220813
-3.715709083 6.3825009925 7.3592339052
-3.7162371157 7.8076027075 7.3591097656
-1.2689607329 6.3773348016 7.3896334272
-1.2691435695 7.7986376664 7.3895931991
1.1784022175 6.3693617538 7.4639880797
1.1789608017 7.8040252041 7.4637680473
6.2571223516 6.3730664551 7.463935987
6.2595580674 7.8128403111 7.464134383
8.7015863748 6.3763530575 7.3775778612
8.7028399006 7.7935636143 7.3772368352
-4.9487026385 8.5239090675 7.3584909035
-4.9566051934 9.9436053409 7.3539205489
-2.4910038785 8.5141713533 7.3666499155
-2.4911685197 9.9354386506 7.3597816755
-0.0413570894 8.5116387485 7.4106797708
-0.0177322517 9.9274770662 7.384874847
2.4281698905 8.4502176192 7.5255460842
2.4766642008 9.8625943185 7.436179356
5.0109699507 8.4504303172 7.532660025
4.9713165496 9.8607562805 7.4387705857
7.4839800424 8.5186735195 7.4027632794
7.4618595381 9.9322867512 7.3798893576
-6.1792667131 10.6458138541 7.356008588
-6.1842021307 12.0515089377 7.3485722395
-3.7258703767 10.65376374 7.3514072854
-3.7109317913 12.0723212153 7.3492346835
-1.2537348988 10.6438464911 7.3622168107
-1.2438878817 12.0609306917 7.3523328975
1.2361960186 10.605128866 7.3858955758
1.2390199035 12.0282700436 7.3604335127
3.7228064557 10.5822123785 7.4224776943
3.7185024383 11.9991532522 7.3758159338
6.2111832845 10.6080311219 7.3844976793
6.1940700546 12.0302456011 7.3603654046
3.7106455414 7.0842814775 8.2098150954
3.7106455414 7.0842814775 10.6898150954
3.3896315948 6.3584377848 11.5351522791