POSCAR-clean
1.0
14.8615528463 0.0031812626 0.0
-7.4307764231 12.7513250115 0.0
0.0 0.0 15.0
C N C Cr C O
46 1 23 1 1 1
Cartesian
-7.4266004526 12.7432978434 7.3490453446
0.0036540232 1.4168412438 7.3510111801
2.4810801511 0.0213999439 7.3478486248
2.4806456102 1.4453175358 7.3589977898
4.9508992206 0.0220287053 7.350085118
4.9530303917 1.4455357408 7.3603353611
0.00010069 12.7516237997 7.3510477445
7.4299368771 1.4237201233 7.3496392628
2.4804519876 12.7244778389 7.3589452601
9.9117709459 1.3964965345 7.3478921404
4.9568987456 12.7245033232 7.3601876325
12.3861348918 1.3956560255 7.3500646598
13.6199661252 2.1142264969 7.3512958077
-1.2465020872 3.5331460778 7.361334716
1.2407646371 2.143215022 7.3622990392
1.2394050209 3.5685348188 7.3877398279
3.7171516991 2.1694753729 7.3754056898
3.7177465055 3.5902428887 7.4202318798
6.1937144869 2.1481030874 7.3613565947
6.1959107499 3.5764011225 7.3869971601
8.6762974068 2.1161116387 7.3478919861
8.6789717202 3.5351023194 7.3553305686
11.1489153188 2.1074267715 7.348359192
11.1493091991 3.5294454186 7.3498511527
12.3795816117 4.2454543698 7.3579254541
-2.488450477 5.6694214269 7.3647232716
-0.0133737959 4.2475515586 7.3873847355
-0.0358479324 5.6628480518 7.417681826
2.4778801109 4.3089047261 7.4314100161
2.441780693 5.7253184409 7.5165327744
4.9574272624 4.3185528721 7.4381251625
4.9939542097 5.7363629831 7.5297373339
7.4496199934 4.2543550022 7.3808462181
7.4730328276 5.6736503967 7.4057037776
9.9155444574 4.2427223238 7.3525664205
9.9212337382 5.6619554132 7.3579447616
11.1393328307 6.3865222523 7.357612904
-3.7252070947 7.8032344861 7.3592015109
-1.2659032881 6.3760446334 7.3914655102
-1.2736293625 7.7949621304 7.3914373064
1.1872950531 6.3698189998 7.4685068549
1.1832455815 7.8018785839 7.4670121098
6.2530401452 6.3734674733 7.4647007959
6.2618912558 7.8010154462 7.4646562298
8.7086481697 6.3872222319 7.379929283
8.7126270078 7.8046865817 7.3821197184
-4.9397623592 8.5073381828 7.3607389685
-4.9461740795 9.9179041437 7.3538871147
-2.4984046469 8.5125478676 7.3660016738
-2.4788692874 9.934073376 7.3584732821
-0.0417951332 8.5083155562 7.4163774955
-0.0144027086 9.9224114227 7.3867008648
2.4376523252 8.446779918 7.5151045586
2.4770461172 9.8608663764 7.4324414746
5.0027185942 8.4383807117 7.5291605134
4.9592114189 9.853606471 7.4387250377
7.4838687073 8.5129983982 7.4064201575
7.4459849779 9.9259562267 7.3804371533
-6.1770454869 10.6250473846 7.3552852516
-6.1785721055 12.0491595462 7.3475408075
-3.716507724 10.6318398054 7.3502821474
-3.7194736156 12.0587159763 7.3483112456
-1.2480854453 10.6387656622 7.3611813181
-1.2443999505 12.0594540396 7.3512169614
1.2374457233 10.6013143964 7.3877562557
1.2387754153 12.0264771167 7.362188471
3.7188932835 10.5798132259 7.4217151152
3.7185632542 11.9999722229 7.3756954316
6.1978992854 10.5986954546 7.3861118835
6.196601442 12.0261809456 7.3605879394
3.6928735595 7.0864742408 8.2106346607
3.6928735595 7.0864742408 10.6906346607
3.3718596129 6.3606305481 11.5359718444