POSCAR-clean
1.0
14.853071779697645 0.0235212199401306 0.0
-7.4265358897989096 12.741655181204555 0.0
0.0 0.0 15.0
C N C Cr
28 1 41 1
Cartesian
0.0037130806 0.0011257142 0.0018332637
0.0026382746 1.425179863 0.0022594408
2.4810446694 0.0285602649 0.0012586323
2.4791825931 1.4456210616 0.0128822408
4.9475441432 0.0365052735 0.0030476414
4.943952679 1.4614136601 0.0146106482
-6.72168e-05 12.7532350874 0.0040006115
7.4230987678 1.4361622964 0.0030038777
2.477577002 12.731998008 0.011594818
9.9035612723 1.4107985878 0.0
4.9516620742 12.7366001854 0.0130936412
12.3757412578 1.4137202525 0.0030680556
13.6131634658 2.1338846686 0.0044024207
-1.239111383 3.5259684801 0.0145609138
1.2444239904 2.1492981764 0.0112262543
1.2414478897 3.5643995568 0.035187229
3.7020523888 2.1822909728 0.0304220617
3.6943480547 3.6043539969 0.0741505638
6.1832585375 2.1620680852 0.0159905224
6.1750302044 3.5840515002 0.0390171454
8.6661661717 2.1283902899 0.0003709854
8.6674943484 3.5463163079 0.0090689772
11.1393824381 2.1226407219 0.0010035426
11.1403097191 3.5440076146 0.002950299
12.3754388211 4.2576964923 0.0114289019
-2.4838021171 5.6544681214 0.0169250994
-0.0044724555 4.2447145923 0.0348610751
-0.0355741747 5.659517771 0.0575099962
2.4613262556 4.2996096487 0.094031695
2.4348115159 5.6898619467 0.2112956058
4.9275453837 4.3366309243 0.0847252556
4.9852039349 5.7508455852 0.1638111671
7.4315273129 4.2612464115 0.0336849149
7.4628863871 5.6782625834 0.0555671594
9.906808375 4.2549977269 0.0060483749
9.9159170829 5.6759334417 0.0125539934
-3.7099355734 6.367439817 0.010545755
-3.7067970997 7.7895914898 0.008470648
-1.260312619 6.3695804231 0.0394726512
-1.2563363988 7.7909322986 0.0458394799
1.1897125827 6.3477774018 0.1179470573
1.2000361902 7.7869735031 0.1170469868
6.2472160428 6.3864368078 0.1057367712
6.25106714 7.8157859502 0.1179751008
8.6939899213 6.3901962984 0.0345098414
8.6974884262 7.8096642798 0.0354178173
-4.9328912512 8.5025003952 0.0100884116
-4.9392244193 9.9248666776 0.0054470745
-2.4792769139 8.5047192545 0.0173310791
-2.4752123843 9.9272184311 0.0107103236
-0.0250053001 8.4991138965 0.072952244
-0.0074263812 9.9188415681 0.0422911316
2.4462276247 8.446305827 0.1596294455
2.4804631007 9.862304736 0.0809755173
4.9992741036 8.4603893236 0.1915854876
4.9588035388 9.8719427932 0.0912094152
7.4701380962 8.5234358807 0.064083628
7.44604116 9.9397124562 0.0357892518
-6.1757103518 10.6332532569 0.0086819321
-6.1807526124 12.0502135007 8.37471e-05
-3.7082601598 10.6394786583 0.0023603002
-3.7092098676 12.0616167387 0.0016132279
-1.2417117731 10.6367578821 0.0151550439
-1.241713536 12.0575700642 0.003903669
1.2411218735 10.6035369444 0.0383807259
1.2381952811 12.0291753071 0.0141240565
3.7180716081 10.5907299052 0.0740671226
3.7149673146 12.0105925342 0.029384321
6.1959655897 10.616428454 0.0366784028
6.1937750777 12.0397209494 0.0123454338
3.7092239356 7.0882713949 0.8666560311