POSCAR-c3n4                             
   1.1000000000000001     
    13.8434242346000005   -0.1907404740000000    0.0000000000000000
    -6.9217121174000003   11.6951909939000007    0.0000000000000000
     0.0000000000000000    0.0000000000000000   14.9999999999999982
   C    N    Ge   C    O 
    24    32     1     1     1
Direct
  0.0844803641635750  0.1707271993351469  0.4768625726776676
  0.2851178664601477  0.4242584261520577  0.4886470703723731
  0.1257477057059546  0.4230009645295851  0.5028660303031529
  0.4530652532853878  0.0701054963938077  0.4987603802245175
  0.4160807189952820  0.3985983664281818  0.4481014597963693
  0.1068393194840880  0.0392457777919049  0.4759016772055489
  0.1072230633740645  0.7226178514970840  0.5002670264532298
  0.2897920306998074  0.9117586757825578  0.4906834527910604
  0.1125117681501351  0.8930157914636183  0.4994716105702679
  0.4595846719791155  0.5696636114291138  0.4986454574964156
  0.4300157418488553  0.8962215887801648  0.4847307904021392
  0.1152415578015749  0.5755071895360686  0.5144785205682183
  0.6280712913851829  0.2178135744926593  0.5015938347083946
  0.8004301386183101  0.3841647780374444  0.4906502428698118
  0.5483047934822594  0.3895343643442573  0.3995257845782234
  0.9387499899829521  0.0271735071658128  0.4977294960088727
  0.9623558093633946  0.4010712605205100  0.4955421269982807
  0.6011759096771385  0.0510075180354477  0.5152672643104381
  0.6300534422098636  0.7064384888626734  0.4992929075071046
  0.7967101633402791  0.8621058149176761  0.5163887815618082
  0.5673717718195306  0.8852029892023694  0.5165720422130633
  0.9502155535768679  0.5583673478849676  0.4892675508802782
  0.9556925952587747  0.8767645868220839  0.5213545246688653
  0.5952239001978938  0.5505363082306687  0.4430963330811224
  0.1816670497572730  0.3768278257837352  0.4943243295879540
  0.1503636757683680  0.1464277336777755  0.4632976001626403
  0.3449930859465695  0.0157583759997877  0.5037847662156665
  0.4492291369232220  0.3392637920913728  0.4161249371302844
  0.3173992450795211  0.3615305303695067  0.4628073386728033
  0.5191328944533069  0.1741365739636294  0.4983939100614734
  0.1586008860456829  0.9924132819456730  0.4691829636217193
  0.0022052757319457  0.9837298836193327  0.4965938438396265
  0.1704647579115885  0.8434619682081177  0.4967215529260116
  0.1615691527190890  0.6786581939189844  0.5236872088671447
  0.3550650702617162  0.5301168296591072  0.5074924920888293
  0.4715332028026111  0.8352868557082047  0.4894456147815092
  0.3293728748660740  0.8523362374362335  0.4730223781469718
  0.5269496651987566  0.6661002614392970  0.5200775848138477
  0.1740419925016923  0.5312181591813285  0.5168567800756207
  0.0109910063682861  0.5124859009483771  0.5011645059437910
  0.6941141056446227  0.3247576963170857  0.4926605936813928
  0.6639651872971086  0.1529071260693371  0.5182305288150957
  0.8406087457412355  0.9696729225222143  0.5053786026270117
  0.0239444225534058  0.3612514272641221  0.4955104097900076
  0.8612558702091633  0.3411081735993591  0.4893614049849262
  0.9922817152778620  0.1376051121014967  0.4912001438151989
  0.6331780621232213  0.9827774141855414  0.5305928651410170
  0.4944393121218766  0.0042498769797490  0.4974303472112993
  0.6942782180516076  0.8076928681349571  0.5157470771116124
  0.6620654639461421  0.6500719323491140  0.4581138920500081
  0.8485090196733793  0.4957560278736750  0.4858970301357672
  0.0190602985113770  0.8399620939566077  0.5316723578103435
  0.8553377936935576  0.8193717011078547  0.5324944211335776
  0.0077059388531993  0.6676539015006497  0.4800832497620249
  0.6217917427819089  0.4871019631718170  0.4069432642155419
  0.4896288837615970  0.5048296908923504  0.4646212418372642
  0.3248146490242689  0.6387821536190899  0.5533823111403962
  0.2542374316774811  0.5281610358518947  0.6931998039821821
  0.2452700274538770  0.5469555125619792  0.7588057094455323

  0.00000000E+00  0.00000000E+00  0.00000000E+00
  0.00000000E+00  0.00000000E+00  0.00000000E+00
  0.00000000E+00  0.00000000E+00  0.00000000E+00
  0.00000000E+00  0.00000000E+00  0.00000000E+00
  0.00000000E+00  0.00000000E+00  0.00000000E+00
  0.00000000E+00  0.00000000E+00  0.00000000E+00
  0.00000000E+00  0.00000000E+00  0.00000000E+00
  0.00000000E+00  0.00000000E+00  0.00000000E+00
  0.00000000E+00  0.00000000E+00  0.00000000E+00
  0.00000000E+00  0.00000000E+00  0.00000000E+00
  0.00000000E+00  0.00000000E+00  0.00000000E+00
  0.00000000E+00  0.00000000E+00  0.00000000E+00
  0.00000000E+00  0.00000000E+00  0.00000000E+00
  0.00000000E+00  0.00000000E+00  0.00000000E+00
  0.00000000E+00  0.00000000E+00  0.00000000E+00
  0.00000000E+00  0.00000000E+00  0.00000000E+00
  0.00000000E+00  0.00000000E+00  0.00000000E+00
  0.00000000E+00  0.00000000E+00  0.00000000E+00
  0.00000000E+00  0.00000000E+00  0.00000000E+00
  0.00000000E+00  0.00000000E+00  0.00000000E+00
  0.00000000E+00  0.00000000E+00  0.00000000E+00
  0.00000000E+00  0.00000000E+00  0.00000000E+00
  0.00000000E+00  0.00000000E+00  0.00000000E+00
  0.00000000E+00  0.00000000E+00  0.00000000E+00
  0.00000000E+00  0.00000000E+00  0.00000000E+00
  0.00000000E+00  0.00000000E+00  0.00000000E+00
  0.00000000E+00  0.00000000E+00  0.00000000E+00
  0.00000000E+00  0.00000000E+00  0.00000000E+00
  0.00000000E+00  0.00000000E+00  0.00000000E+00
  0.00000000E+00  0.00000000E+00  0.00000000E+00
  0.00000000E+00  0.00000000E+00  0.00000000E+00
  0.00000000E+00  0.00000000E+00  0.00000000E+00
  0.00000000E+00  0.00000000E+00  0.00000000E+00
  0.00000000E+00  0.00000000E+00  0.00000000E+00
  0.00000000E+00  0.00000000E+00  0.00000000E+00
  0.00000000E+00  0.00000000E+00  0.00000000E+00
  0.00000000E+00  0.00000000E+00  0.00000000E+00
  0.00000000E+00  0.00000000E+00  0.00000000E+00
  0.00000000E+00  0.00000000E+00  0.00000000E+00
  0.00000000E+00  0.00000000E+00  0.00000000E+00
  0.00000000E+00  0.00000000E+00  0.00000000E+00
  0.00000000E+00  0.00000000E+00  0.00000000E+00
  0.00000000E+00  0.00000000E+00  0.00000000E+00
  0.00000000E+00  0.00000000E+00  0.00000000E+00
  0.00000000E+00  0.00000000E+00  0.00000000E+00
  0.00000000E+00  0.00000000E+00  0.00000000E+00
  0.00000000E+00  0.00000000E+00  0.00000000E+00
  0.00000000E+00  0.00000000E+00  0.00000000E+00
  0.00000000E+00  0.00000000E+00  0.00000000E+00
  0.00000000E+00  0.00000000E+00  0.00000000E+00
  0.00000000E+00  0.00000000E+00  0.00000000E+00
  0.00000000E+00  0.00000000E+00  0.00000000E+00
  0.00000000E+00  0.00000000E+00  0.00000000E+00
  0.00000000E+00  0.00000000E+00  0.00000000E+00
  0.00000000E+00  0.00000000E+00  0.00000000E+00
  0.00000000E+00  0.00000000E+00  0.00000000E+00
  0.00000000E+00  0.00000000E+00  0.00000000E+00
  0.00000000E+00  0.00000000E+00  0.00000000E+00
  0.00000000E+00  0.00000000E+00  0.00000000E+00
