POSCAR-clean
1.0
14.856884905770182 2.04971428544e-05 0.0
-7.428442452835163 12.754318856264474 0.0
0.0 0.0 15.0
C N C Cr
67 1 2 1
Cartesian
7.4203134923 12.7530197307 0.0017699266
-0.0014232747 1.4189911841 0.0030771251
2.4782756928 0.0258256044 0.0001547707
2.4787499318 1.4457724959 0.0109084433
4.9539125827 0.0256439885 0.0031430571
4.953539817 1.4455537718 0.0129339054
0.0118848653 12.7526092774 0.0030587588
7.4336397506 1.4186014921 0.0020447361
2.4940621631 12.7193037999 0.0117162095
9.9203680859 1.3840360537 0.0007333481
4.938254906 12.7195180031 0.0135417044
12.3687365792 1.3842188977 0.0037568266
13.6106559678 2.1030245807 0.0044639862
-1.2494146001 3.5241612651 0.0146165804
1.236572174 2.144025219 0.012525025
1.2354544558 3.5671057105 0.0378831756
3.7161734147 2.1705664784 0.028360555
3.7162068419 3.5901318338 0.0751260798
6.1957120992 2.1437271658 0.0133107765
6.1967679185 3.5668746589 0.0376067482
8.6783701832 2.102728541 0.0
8.6814118493 3.523918752 0.0075941642
11.1445013554 2.1054306273 0.0018682301
11.1444145417 3.5241615494 0.003650665
12.3759876641 4.236742198 0.0119265239
-2.4874260221 5.6592983981 0.018461609
-0.0168367178 4.2440124913 0.0377272599
-0.0403965555 5.6623582995 0.064300288
2.4739745399 4.3107858462 0.0876043458
2.4300266523 5.7238275416 0.1768637416
4.9584496661 4.3108470937 0.0900004502
5.0024611157 5.7239518787 0.181521169
7.4488858832 4.2438375242 0.0322995568
7.472220788 5.6622797314 0.056913416
9.9127880964 4.2366176644 0.0057247674
9.9191226989 5.6592663731 0.010665069
11.1442635337 6.3738474356 0.0113040517
-3.7126452907 7.7973469745 0.0114273647
-1.2658462847 6.3752214015 0.0421436658
-1.2649188915 7.7962937425 0.0417817979
1.1810247398 6.3730856154 0.1155228359
1.1842381636 7.8075908516 0.1146356465
6.2512464402 6.3730708794 0.115057751
6.2480286046 7.8076064847 0.1142130822
8.6975433086 6.3752256998 0.0307514595
8.6965830223 7.796296857 0.0304026221
-4.9383888205 8.5123830424 0.010839814
-4.9438534544 9.9353330132 0.0057876448
-2.4868689629 8.5123159809 0.0186219222
-2.4812168263 9.9352037639 0.0119200071
-0.0370995253 8.5091372625 0.062612681
-0.0139881893 9.9274641789 0.0370599468
2.4406766965 8.4574361356 0.1813135377
2.4759575227 9.8747394733 0.0870586375
4.9918500722 8.4573669648 0.1861708164
4.956535498 9.8747108624 0.0895589968
7.4688960507 8.5092177404 0.0552494077
7.4460496003 9.9276586054 0.0315529008
-6.1797909973 10.644638884 0.0076169293
-6.1892325974 12.0616973071 1.36751e-05
-3.7125098282 10.6483959741 0.0033919226
-3.7124069454 12.0698209385 0.0013500593
-1.2451377376 10.6443840321 0.0145242808
-1.2355274349 12.0614063605 0.0044485055
1.2354116064 10.6041003874 0.0367256184
1.2519603793 12.0228280894 0.0125202583
3.7162509804 10.59536979 0.0752376751
3.7161799623 12.0040901691 0.0292615678
6.1968277189 10.6043528011 0.0361915169
6.1803145469 12.0231482336 0.0129665209
3.7139378095 7.0889485426 0.8637463789