POSCAR-clean
1.0
14.848061935829278 -3.51717570359e-05 0.0
-7.424030967864742 12.747419585110643 0.0
0.0 0.0 15.0
C N C Cr
17 1 52 1
Cartesian
-7.4200415524 12.7454537552 0.0023141426
0.0054869046 1.4226927583 0.0034220338
2.4861913448 0.032778922 0.0009248659
2.4855964122 1.4584166522 0.0146124919
4.941503135 0.0326313298 0.003762648
4.942160915 1.4582496934 0.0164887284
-0.0003027019 12.7452023172 0.0035948247
7.4222173272 1.4224343792 0.002394272
2.4780350917 12.7215987855 0.0115123826
9.9027421632 1.3939620496 0.0002873258
4.9497572166 12.7217456385 0.0132520108
12.3730590871 1.3940729587 0.0031249841
13.6102121895 2.1137726075 0.0044605246
-1.2372100993 3.5289654965 0.015225342
1.2373572319 2.1467764167 0.0141999561
1.2497679681 3.5633037167 0.036341463
3.7139001704 2.1788170438 0.034355004
3.7139910381 3.5883019958 0.0750850531
6.1903867045 2.1465653313 0.0147159362
6.1780183697 3.5632111185 0.0354795879
8.6655297105 2.1136050412 0.0002331397
8.6648454089 3.5287842823 0.0086527728
11.1378592918 2.1041118569 0.0015301767
11.1378340877 3.5253866302 0.0037692273
12.3710513056 4.2370909835 0.0121331204
-2.4836456748 5.6571070311 0.018449329
-0.0033008867 4.2446883491 0.0377961369
-0.0292683621 5.6591506908 0.0642082371
2.4904636267 4.3082375413 0.0827032383
2.4585225751 5.7110809998 0.174565522
4.9375362321 4.3085210097 0.084343064
4.9694702234 5.7114532715 0.1785271249
7.4309852721 4.244558695 0.0323984557
7.4567692688 5.6591106982 0.0570743885
9.9045765934 4.2370281976 0.0064486529
9.911119924 5.6570597004 0.0112932457
11.1377569355 6.3702977221 0.0114138494
-3.7103136548 7.7934680566 0.0106955188
-1.2594228414 6.3715405721 0.0422729357
-1.2615274429 7.789674749 0.0431258991
1.1902552225 6.357797985 0.114248318
1.1866810111 7.7873073863 0.1165609134
6.2376522442 6.3577992814 0.1134346922
6.2412622443 7.7872812609 0.1157337651
8.6868753893 6.3715293179 0.0316150271
8.6889662731 7.7896237511 0.0324655968
-4.9355135908 8.5077606956 0.0106152484
-4.9396044026 9.9289153231 0.0059153979
-2.4850928025 8.5077162013 0.0178991683
-2.4809302461 9.9288262324 0.0116834243
-0.0343696049 8.4995492899 0.0676546535
-0.014288548 9.9184108945 0.0391457099
2.4392123878 8.4391842836 0.1761825445
2.4758696365 9.8528315997 0.086336762
4.9887830209 8.4387242214 0.1801243837
4.9520772777 9.8525104862 0.0882919758
7.4618929016 8.4995583957 0.0605515874
7.4419532021 9.9185177382 0.0337998395
-6.1751805792 10.6389481007 0.0080072573
-6.1758288128 12.0583778728 0.0
-3.7102597281 10.6424101907 0.0035231514
-3.7102224552 12.0671217263 0.0016188658
-1.2452835318 10.6387687377 0.0145611813
-1.2445534019 12.0581609698 0.0042827456
1.2360800648 10.5968277692 0.0379802787
1.2352422004 12.0203230413 0.0133678527
3.7139990625 10.5765596668 0.0748610128
3.7139397379 11.9979197937 0.0292577509
6.1916761732 10.5968578857 0.0373535754
6.1925295254 12.0204689155 0.013753424
3.7113300428 7.086713529 0.8802244344