POSCAR-clean
1.0
14.8568849058 2.04971e-05 0.0
-7.4284424528 12.7543188563 0.0
0.0 0.0 15.0
C N C Cr C O
67 1 2 1 1 1
Cartesian
7.4203134923 12.7530197307 7.2536375371
-0.0014232747 1.4189911841 7.2549447356
2.4782756928 0.0258256044 7.2520223812
2.4787499318 1.4457724959 7.2627760538
4.9539125827 0.0256439885 7.2550106676
4.953539817 1.4455537718 7.2648015159
0.0118848653 12.7526092774 7.2549263693
7.4336397506 1.4186014921 7.2539123466
2.4940621631 12.7193037999 7.26358382
9.9203680859 1.3840360537 7.2526009586
4.938254906 12.7195180031 7.2654093149
12.3687365792 1.3842188977 7.2556244371
13.6106559678 2.1030245807 7.2563315967
-1.2494146001 3.5241612651 7.2664841909
1.236572174 2.144025219 7.2643926355
1.2354544558 3.5671057105 7.2897507861
3.7161734147 2.1705664784 7.2802281655
3.7162068419 3.5901318338 7.3269936903
6.1957120992 2.1437271658 7.265178387
6.1967679185 3.5668746589 7.2894743587
8.6783701832 2.102728541 7.2518676105
8.6814118493 3.523918752 7.2594617747
11.1445013554 2.1054306273 7.2537358406
11.1444145417 3.5241615494 7.2555182755
12.3759876641 4.236742198 7.2637941344
-2.4874260221 5.6592983981 7.2703292195
-0.0168367178 4.2440124913 7.2895948704
-0.0403965555 5.6623582995 7.3161678985
2.4739745399 4.3107858462 7.3394719563
2.4300266523 5.7238275416 7.4287313521
4.9584496661 4.3108470937 7.3418680607
5.0024611157 5.7239518787 7.4333887795
7.4488858832 4.2438375242 7.2841671673
7.472220788 5.6622797314 7.3087810265
9.9127880964 4.2366176644 7.2575923779
9.9191226989 5.6592663731 7.2625326795
11.1442635337 6.3738474356 7.2631716622
-3.7126452907 7.7973469745 7.2632949752
-1.2658462847 6.3752214015 7.2940112763
-1.2649188915 7.7962937425 7.2936494084
1.1810247398 6.3730856154 7.3673904464
1.1842381636 7.8075908516 7.366503257
6.2512464402 6.3730708794 7.3669253615
6.2480286046 7.8076064847 7.3660806927
8.6975433086 6.3752256998 7.28261907
8.6965830223 7.796296857 7.2822702326
-4.9383888205 8.5123830424 7.2627074245
-4.9438534544 9.9353330132 7.2576552553
-2.4868689629 8.5123159809 7.2704895327
-2.4812168263 9.9352037639 7.2637876176
-0.0370995253 8.5091372625 7.3144802915
-0.0139881893 9.9274641789 7.2889275573
2.4406766965 8.4574361356 7.4331811482
2.4759575227 9.8747394733 7.338926248
4.9918500722 8.4573669648 7.4380384269
4.956535498 9.8747108624 7.3414266073
7.4688960507 8.5092177404 7.3071170182
7.4460496003 9.9276586054 7.2834205113
-6.1797909973 10.644638884 7.2594845398
-6.1892325974 12.0616973071 7.2518812856
-3.7125098282 10.6483959741 7.2552595331
-3.7124069454 12.0698209385 7.2532176698
-1.2451377376 10.6443840321 7.2663918913
-1.2355274349 12.0614063605 7.256316116
1.2354116064 10.6041003874 7.2885932289
1.2519603793 12.0228280894 7.2643878688
3.7162509804 10.59536979 7.3271052856
3.7161799623 12.0040901691 7.2811291783
6.1968277189 10.6043528011 7.2880591274
6.1803145469 12.0231482336 7.2648341314
3.7139378095 7.0889485426 8.1156139894
3.7139378095 7.0889485426 14.0956139894
3.3929238629 6.3631048499 14.9409511731