POSCAR-c3n4                             
   1.0400000000000000     
    13.8434242346000005   -0.1907404740000000    0.0000000000000000
    -6.9217121174000003   11.6951909939000007    0.0000000000000000
     0.0000000000000000    0.0000000000000000   15.0000000000000000
   C    N    Ge   C    O 
    24    32     1     1     1
Direct
  0.1068033318747303  0.2142484538414030  0.4678351923733003
  0.2863710118891517  0.3928642551490209  0.4669010526726451
  0.1050306945695711  0.3917679992627108  0.4664184435614590
  0.4461602039747372  0.0605699947065039  0.5143508117017644
  0.4455438618722746  0.3883086849118343  0.4516979569852957
  0.1100676518195249  0.0538462101104920  0.4756081484477364
  0.1043547954094683  0.7154704853763497  0.4940290693222446
  0.2859648212594350  0.8935629834642848  0.5041642666431643
  0.1057727073220043  0.8932119156250623  0.5045747724146621
  0.4490757119076059  0.5505493971766019  0.5091606983187060
  0.4445513770695229  0.8888304202228425  0.4924426779073623
  0.0999213866119002  0.5514623779864293  0.4997292117276484
  0.6115922459847720  0.2199444005732341  0.4967853425323874
  0.7842415610967214  0.3908730120614229  0.4496118332682532
  0.6078340211618450  0.3932192905107667  0.4654645325740573
  0.9432074430182228  0.0543702684808004  0.4866448955623436
  0.9407805011986563  0.3841826119183622  0.4466655176533430
  0.6157793220437757  0.0614227013162412  0.5187724223123160
  0.6107819005065130  0.7150179965874414  0.5165672721269762
  0.7872882617025112  0.8936516524511108  0.5192601203743702
  0.6070513797573125  0.8942937781814638  0.5148797831910025
  0.9431935798569514  0.5588690451101963  0.4572229849120565
  0.9451271499587586  0.8891317948737755  0.5290101648123173
  0.6172367781606228  0.5576706214340712  0.4919331519547724
  0.1669094280789055  0.3344270965326939  0.4642944895161717
  0.1626248296586419  0.1624803853193797  0.4613479464970665
  0.3375423107241916  0.0007320266182654  0.5250060072877830
  0.5028225805931145  0.3399307130730832  0.4375988886830969
  0.3383808840188628  0.3454763863048246  0.4358563342813075
  0.5033915853838377  0.1704886144190025  0.5099502778009024
  0.1592037349539539  0.9949258963076204  0.4715172353969703
 -0.0012781955443966 -0.0024756277706192  0.4953885216479329
  0.1663083871386023  0.8336815681768998  0.5033358042785143
  0.1511417667167633  0.6577675250325759  0.5215614660750992
  0.3384365929548098  0.4963835310021697  0.5052508737223746
  0.5008479941728012  0.8363073465006076  0.4893334535642986
  0.3355854545014620  0.8365110148806345  0.4831360716983588
  0.5017879371338357  0.6561908874437269  0.5336431642162659
  0.1554389753460084  0.4968646092358643  0.5026858256727286
  0.9942660343969648  0.4970212486609629  0.4743250319219073
  0.6676881887774164  0.3329506196873943  0.4679556213612093
  0.6697932157561082  0.1715285420484629  0.5135335650385776
  0.8343372450706288  0.9952221037579325  0.4871856949364010
  0.0046629507157811  0.3409935360007276  0.4354088087173623
  0.8334464416064773  0.3318264202654628  0.4366568426346275
  0.9989087453625130  0.1636024422043340  0.4779757553813031
  0.6629699255915841  0.0019677787574562  0.5347143026354396
  0.5019723511281717  0.0029125067459903  0.5055294797428970
  0.6665693932692680  0.8336200464559821  0.5203568672188742
  0.6678990044436086  0.6685283418586814  0.4960147188582581
  0.8375063525352182  0.5025090537017609  0.4432988951308114
  0.0046266482014188  0.8406056346341895  0.5392765726538933
  0.8389577506451508  0.8432078245459258  0.5497357965790695
  0.0065138885041458  0.6705199959375230  0.4579272417295658
  0.6660352135168598  0.5002698648621379  0.4892130742744006
  0.5016301046557466  0.4972643629253403  0.4886437427870851
  0.3094000165847641  0.6201277708558453  0.5500249711731635
  0.2957996545660744  0.6001115506813811  0.7605055282801025
  0.2242621904071113  0.5235005426486151  0.7920808051293496

  0.00000000E+00  0.00000000E+00  0.00000000E+00
  0.00000000E+00  0.00000000E+00  0.00000000E+00
  0.00000000E+00  0.00000000E+00  0.00000000E+00
  0.00000000E+00  0.00000000E+00  0.00000000E+00
  0.00000000E+00  0.00000000E+00  0.00000000E+00
  0.00000000E+00  0.00000000E+00  0.00000000E+00
  0.00000000E+00  0.00000000E+00  0.00000000E+00
  0.00000000E+00  0.00000000E+00  0.00000000E+00
  0.00000000E+00  0.00000000E+00  0.00000000E+00
  0.00000000E+00  0.00000000E+00  0.00000000E+00
  0.00000000E+00  0.00000000E+00  0.00000000E+00
  0.00000000E+00  0.00000000E+00  0.00000000E+00
  0.00000000E+00  0.00000000E+00  0.00000000E+00
  0.00000000E+00  0.00000000E+00  0.00000000E+00
  0.00000000E+00  0.00000000E+00  0.00000000E+00
  0.00000000E+00  0.00000000E+00  0.00000000E+00
  0.00000000E+00  0.00000000E+00  0.00000000E+00
  0.00000000E+00  0.00000000E+00  0.00000000E+00
  0.00000000E+00  0.00000000E+00  0.00000000E+00
  0.00000000E+00  0.00000000E+00  0.00000000E+00
  0.00000000E+00  0.00000000E+00  0.00000000E+00
  0.00000000E+00  0.00000000E+00  0.00000000E+00
  0.00000000E+00  0.00000000E+00  0.00000000E+00
  0.00000000E+00  0.00000000E+00  0.00000000E+00
  0.00000000E+00  0.00000000E+00  0.00000000E+00
  0.00000000E+00  0.00000000E+00  0.00000000E+00
  0.00000000E+00  0.00000000E+00  0.00000000E+00
  0.00000000E+00  0.00000000E+00  0.00000000E+00
  0.00000000E+00  0.00000000E+00  0.00000000E+00
  0.00000000E+00  0.00000000E+00  0.00000000E+00
  0.00000000E+00  0.00000000E+00  0.00000000E+00
  0.00000000E+00  0.00000000E+00  0.00000000E+00
  0.00000000E+00  0.00000000E+00  0.00000000E+00
  0.00000000E+00  0.00000000E+00  0.00000000E+00
  0.00000000E+00  0.00000000E+00  0.00000000E+00
  0.00000000E+00  0.00000000E+00  0.00000000E+00
  0.00000000E+00  0.00000000E+00  0.00000000E+00
  0.00000000E+00  0.00000000E+00  0.00000000E+00
  0.00000000E+00  0.00000000E+00  0.00000000E+00
  0.00000000E+00  0.00000000E+00  0.00000000E+00
  0.00000000E+00  0.00000000E+00  0.00000000E+00
  0.00000000E+00  0.00000000E+00  0.00000000E+00
  0.00000000E+00  0.00000000E+00  0.00000000E+00
  0.00000000E+00  0.00000000E+00  0.00000000E+00
  0.00000000E+00  0.00000000E+00  0.00000000E+00
  0.00000000E+00  0.00000000E+00  0.00000000E+00
  0.00000000E+00  0.00000000E+00  0.00000000E+00
  0.00000000E+00  0.00000000E+00  0.00000000E+00
  0.00000000E+00  0.00000000E+00  0.00000000E+00
  0.00000000E+00  0.00000000E+00  0.00000000E+00
  0.00000000E+00  0.00000000E+00  0.00000000E+00
  0.00000000E+00  0.00000000E+00  0.00000000E+00
  0.00000000E+00  0.00000000E+00  0.00000000E+00
  0.00000000E+00  0.00000000E+00  0.00000000E+00
  0.00000000E+00  0.00000000E+00  0.00000000E+00
  0.00000000E+00  0.00000000E+00  0.00000000E+00
  0.00000000E+00  0.00000000E+00  0.00000000E+00
  0.00000000E+00  0.00000000E+00  0.00000000E+00
  0.00000000E+00  0.00000000E+00  0.00000000E+00
