POSCAR-c3n4                             
  0.81999999999999995     
    13.8434242346000005   -0.1907404740000000    0.0000000000000000
    -6.9217121174000003   11.6951909939000007    0.0000000000000000
     0.0000000000000000    0.0000000000000000   15.0000000000000000
   C    N    Ge   C    O 
    24    32     1     1     1
Direct
  0.0567635552611831  0.1453371734023785  0.3344973791093568
  0.2433002668748165  0.3764268817711150  0.4170472567523379
  0.0257446923186763  0.3239535830593959  0.3950847196316031
  0.4685889505797818  0.0685028125183518  0.5386413563148811
  0.4553684705301764  0.4350314925459372  0.3777792954558947
  0.1547420653646960  0.0636231710567110  0.4102618469062070
  0.0529432719535809  0.7089241115131804  0.5083172256053388
  0.2579306405516550  0.8738983996763191  0.6003478850237688
  0.2667370679275538  0.0762879755513078  0.5598598461373975
  0.4095355716034370  0.5345937474504185  0.5334827715978435
  0.4601571527574235  0.8869475575408040  0.6433377826710543
  0.0036430537646937  0.4854728431962042  0.4704144185763225
  0.6493074028222764  0.2131013834402756  0.4287966535826435
  0.7606193233545946  0.4128403921773984  0.2666342916965547
  0.6234334931833534  0.3979454363999592  0.3982097087181672
  0.9114211252630570 -0.0264870979842465  0.4335013782555367
  0.9341620478567177  0.4051195110574118  0.2843760262488035
  0.6745874726307449  0.0720194690188593  0.5492834226668252
  0.5998225176317342  0.6808152358894691  0.6341634991046121
  0.8241762086686568  0.8806805617606089  0.5956164927802139
  0.6628692776672356  0.9190230525450808  0.6737112279229190
  0.9122926947360207  0.5960147387396258  0.3612282995148638
  0.0532786971223352  0.0148664870660411  0.5924202509756393
  0.6127184566027882  0.5209304243845708  0.5343662607246256
  0.1059241715325318  0.2644005016514329  0.3995849708290675
  0.1480958756010939  0.1065992097702916  0.3119730220966832
  0.3513437725569891  0.0279942663128104  0.6010434884538363
  0.5347759065098108  0.3993146185401173  0.3289633884771200
  0.3291838855226846  0.3873493783622682  0.3401832257026820
  0.5233263300159677  0.1737272702621167  0.4735358923768786
  0.2657862415202704  0.0752154673893089  0.4535042003408272
  0.0395931492760704  0.0125055076078502  0.4809407641031329
  0.1388267742033205  0.8315976735487959  0.5577905503237519
  0.0564860312044923  0.5926549933753706  0.5418441954631118
  0.2753812997529094  0.4626085107196173  0.5062693137020220
  0.5319263772054376  0.8629196730117373  0.7121157944171624
  0.3183120127848977  0.8049074475293566  0.6375256134329571
  0.4647453785178742  0.6341258022414564  0.6094852299301026
  0.0136238239315885  0.3752085614399119  0.4901823690802463
  0.9567485037023199  0.4994647229361161  0.3726056600614948
  0.6840809373779124  0.3250853808614727  0.3566131245601837
  0.7296469177073334  0.1691263900245834  0.4697565040526684
  0.7987511996816583  0.8788055792471325  0.4894592234601355
  0.0044807528100473  0.3410511429999724  0.2932490709201395
  0.8427203423603241  0.3789062372726521  0.2098253972742339
  0.9189728499321472  0.0463265001644515  0.3462722212320998
  0.7428569968990573  0.0405773109371691  0.6184550491057288
  0.5259704639542899 -0.0115411724226277  0.5597231415808628
  0.6981299740577644  0.8199732030801223  0.6614077139429613
  0.6620550555443785  0.6081174829703466  0.6171475441360674
  0.8125754836141686  0.5578175770878856  0.2901781312658132
  0.1800168609304358  0.0740073972017576  0.6348473062228926
  0.9392158035522427  0.9494317249542789  0.6534194603618673
 -0.0246844808052073  0.7099084357034751  0.4272333081149683
  0.6710553928811479  0.4545146233614301  0.4955057059421371
  0.4945588793984808  0.5001894224649527  0.4794558201122043
  0.2014287201463862  0.5783779832804092  0.6462337354507410
  0.2342114653432885  0.5782335292893870  0.9125637824745342
  0.2658546553416910  0.5299508146906671  0.9797267848986286

  0.00000000E+00  0.00000000E+00  0.00000000E+00
  0.00000000E+00  0.00000000E+00  0.00000000E+00
  0.00000000E+00  0.00000000E+00  0.00000000E+00
  0.00000000E+00  0.00000000E+00  0.00000000E+00
  0.00000000E+00  0.00000000E+00  0.00000000E+00
  0.00000000E+00  0.00000000E+00  0.00000000E+00
  0.00000000E+00  0.00000000E+00  0.00000000E+00
  0.00000000E+00  0.00000000E+00  0.00000000E+00
  0.00000000E+00  0.00000000E+00  0.00000000E+00
  0.00000000E+00  0.00000000E+00  0.00000000E+00
  0.00000000E+00  0.00000000E+00  0.00000000E+00
  0.00000000E+00  0.00000000E+00  0.00000000E+00
  0.00000000E+00  0.00000000E+00  0.00000000E+00
  0.00000000E+00  0.00000000E+00  0.00000000E+00
  0.00000000E+00  0.00000000E+00  0.00000000E+00
  0.00000000E+00  0.00000000E+00  0.00000000E+00
  0.00000000E+00  0.00000000E+00  0.00000000E+00
  0.00000000E+00  0.00000000E+00  0.00000000E+00
  0.00000000E+00  0.00000000E+00  0.00000000E+00
  0.00000000E+00  0.00000000E+00  0.00000000E+00
  0.00000000E+00  0.00000000E+00  0.00000000E+00
  0.00000000E+00  0.00000000E+00  0.00000000E+00
  0.00000000E+00  0.00000000E+00  0.00000000E+00
  0.00000000E+00  0.00000000E+00  0.00000000E+00
  0.00000000E+00  0.00000000E+00  0.00000000E+00
  0.00000000E+00  0.00000000E+00  0.00000000E+00
  0.00000000E+00  0.00000000E+00  0.00000000E+00
  0.00000000E+00  0.00000000E+00  0.00000000E+00
  0.00000000E+00  0.00000000E+00  0.00000000E+00
  0.00000000E+00  0.00000000E+00  0.00000000E+00
  0.00000000E+00  0.00000000E+00  0.00000000E+00
  0.00000000E+00  0.00000000E+00  0.00000000E+00
  0.00000000E+00  0.00000000E+00  0.00000000E+00
  0.00000000E+00  0.00000000E+00  0.00000000E+00
  0.00000000E+00  0.00000000E+00  0.00000000E+00
  0.00000000E+00  0.00000000E+00  0.00000000E+00
  0.00000000E+00  0.00000000E+00  0.00000000E+00
  0.00000000E+00  0.00000000E+00  0.00000000E+00
  0.00000000E+00  0.00000000E+00  0.00000000E+00
  0.00000000E+00  0.00000000E+00  0.00000000E+00
  0.00000000E+00  0.00000000E+00  0.00000000E+00
  0.00000000E+00  0.00000000E+00  0.00000000E+00
  0.00000000E+00  0.00000000E+00  0.00000000E+00
  0.00000000E+00  0.00000000E+00  0.00000000E+00
  0.00000000E+00  0.00000000E+00  0.00000000E+00
  0.00000000E+00  0.00000000E+00  0.00000000E+00
  0.00000000E+00  0.00000000E+00  0.00000000E+00
  0.00000000E+00  0.00000000E+00  0.00000000E+00
  0.00000000E+00  0.00000000E+00  0.00000000E+00
  0.00000000E+00  0.00000000E+00  0.00000000E+00
  0.00000000E+00  0.00000000E+00  0.00000000E+00
  0.00000000E+00  0.00000000E+00  0.00000000E+00
  0.00000000E+00  0.00000000E+00  0.00000000E+00
  0.00000000E+00  0.00000000E+00  0.00000000E+00
  0.00000000E+00  0.00000000E+00  0.00000000E+00
  0.00000000E+00  0.00000000E+00  0.00000000E+00
  0.00000000E+00  0.00000000E+00  0.00000000E+00
  0.00000000E+00  0.00000000E+00  0.00000000E+00
  0.00000000E+00  0.00000000E+00  0.00000000E+00
