POSCAR-clean
1.0
14.8480619358 -3.51718e-05 0.0
-7.4240309679 12.7474195851 0.0
0.0 0.0 15.0
C N C Cr C O
17 1 52 1 1 1
Cartesian
-7.4200415524 12.7454537552 7.3492453179
0.0054869046 1.4226927583 7.3503532091
2.4861913448 0.032778922 7.3478560412
2.4855964122 1.4584166522 7.3615436672
4.941503135 0.0326313298 7.3506938233
4.942160915 1.4582496934 7.3634199037
-0.0003027019 12.7452023172 7.350526
7.4222173272 1.4224343792 7.3493254473
2.4780350917 12.7215987855 7.3584435579
9.9027421632 1.3939620496 7.3472185011
4.9497572166 12.7217456385 7.3601831861
12.3730590871 1.3940729587 7.3500561594
13.6102121895 2.1137726075 7.3513916999
-1.2372100993 3.5289654965 7.3621565173
1.2373572319 2.1467764167 7.3611311314
1.2497679681 3.5633037167 7.3832726383
3.7139001704 2.1788170438 7.3812861793
3.7139910381 3.5883019958 7.4220162284
6.1903867045 2.1465653313 7.3616471115
6.1780183697 3.5632111185 7.3824107632
8.6655297105 2.1136050412 7.347164315
8.6648454089 3.5287842823 7.3555839481
11.1378592918 2.1041118569 7.348461352
11.1378340877 3.5253866302 7.3507004026
12.3710513056 4.2370909835 7.3590642957
-2.4836456748 5.6571070311 7.3653805043
-0.0033008867 4.2446883491 7.3847273122
-0.0292683621 5.6591506908 7.4111394124
2.4904636267 4.3082375413 7.4296344136
2.4585225751 5.7110809998 7.5214966973
4.9375362321 4.3085210097 7.4312742393
4.9694702234 5.7114532715 7.5254583002
7.4309852721 4.244558695 7.379329631
7.4567692688 5.6591106982 7.4040055638
9.9045765934 4.2370281976 7.3533798282
9.911119924 5.6570597004 7.358224421
11.1377569355 6.3702977221 7.3583450247
-3.7103136548 7.7934680566 7.3576266941
-1.2594228414 6.3715405721 7.389204111
-1.2615274429 7.789674749 7.3900570744
1.1902552225 6.357797985 7.4611794933
1.1866810111 7.7873073863 7.4634920887
6.2376522442 6.3577992814 7.4603658675
6.2412622443 7.7872812609 7.4626649404
8.6868753893 6.3715293179 7.3785462024
8.6889662731 7.7896237511 7.3793967721
-4.9355135908 8.5077606956 7.3575464237
-4.9396044026 9.9289153231 7.3528465732
-2.4850928025 8.5077162013 7.3648303436
-2.4809302461 9.9288262324 7.3586145996
-0.0343696049 8.4995492899 7.4145858288
-0.014288548 9.9184108945 7.3860768852
2.4392123878 8.4391842836 7.5231137198
2.4758696365 9.8528315997 7.4332679373
4.9887830209 8.4387242214 7.527055559
4.9520772777 9.8525104862 7.4352231511
7.4618929016 8.4995583957 7.4074827627
7.4419532021 9.9185177382 7.3807310148
-6.1751805792 10.6389481007 7.3549384326
-6.1758288128 12.0583778728 7.3469311753
-3.7102597281 10.6424101907 7.3504543267
-3.7102224552 12.0671217263 7.3485500411
-1.2452835318 10.6387687377 7.3614923566
-1.2445534019 12.0581609698 7.3512139209
1.2360800648 10.5968277692 7.384911454
1.2352422004 12.0203230413 7.360299028
3.7139990625 10.5765596668 7.4217921881
3.7139397379 11.9979197937 7.3761889262
6.1916761732 10.5968578857 7.3842847507
6.1925295254 12.0204689155 7.3606845993
3.7113300428 7.086713529 8.2271556097
3.7113300428 7.086713529 10.7071556097
3.3903160962 6.3608698363 11.5524927934