POSCAR-clean
1.0
14.8615528463 0.0031812626 0.0
-7.4307764231 12.7513250115 0.0
0.0 0.0 15.0
C N C Cr C O
46 1 23 1 1 1
Cartesian
-7.4266004526 12.7432978434 7.2531549337
0.0036540232 1.4168412438 7.2551207692
2.4810801511 0.0213999439 7.2519582139
2.4806456102 1.4453175358 7.2631073789
4.9508992206 0.0220287053 7.2541947071
4.9530303917 1.4455357408 7.2644449502
0.00010069 12.7516237997 7.2551573336
7.4299368771 1.4237201233 7.2537488519
2.4804519876 12.7244778389 7.2630548492
9.9117709459 1.3964965345 7.2520017295
4.9568987456 12.7245033232 7.2642972216
12.3861348918 1.3956560255 7.2541742489
13.6199661252 2.1142264969 7.2554053968
-1.2465020872 3.5331460778 7.2654443051
1.2407646371 2.143215022 7.2664086283
1.2394050209 3.5685348188 7.291849417
3.7171516991 2.1694753729 7.2795152789
3.7177465055 3.5902428887 7.3243414689
6.1937144869 2.1481030874 7.2654661838
6.1959107499 3.5764011225 7.2911067492
8.6762974068 2.1161116387 7.2520015752
8.6789717202 3.5351023194 7.2594401577
11.1489153188 2.1074267715 7.2524687811
11.1493091991 3.5294454186 7.2539607418
12.3795816117 4.2454543698 7.2620350432
-2.488450477 5.6694214269 7.2688328607
-0.0133737959 4.2475515586 7.2914943246
-0.0358479324 5.6628480518 7.3217914151
2.4778801109 4.3089047261 7.3355196052
2.441780693 5.7253184409 7.4206423635
4.9574272624 4.3185528721 7.3422347516
4.9939542097 5.7363629831 7.433846923
7.4496199934 4.2543550022 7.2849558072
7.4730328276 5.6736503967 7.3098133667
9.9155444574 4.2427223238 7.2566760096
9.9212337382 5.6619554132 7.2620543507
11.1393328307 6.3865222523 7.2617224931
-3.7252070947 7.8032344861 7.2633111
-1.2659032881 6.3760446334 7.2955750993
-1.2736293625 7.7949621304 7.2955468955
1.1872950531 6.3698189998 7.372616444
1.1832455815 7.8018785839 7.3711216989
6.2530401452 6.3734674733 7.368810385
6.2618912558 7.8010154462 7.3687658189
8.7086481697 6.3872222319 7.2840388721
8.7126270078 7.8046865817 7.2862293075
-4.9397623592 8.5073381828 7.2648485576
-4.9461740795 9.9179041437 7.2579967038
-2.4984046469 8.5125478676 7.2701112629
-2.4788692874 9.934073376 7.2625828712
-0.0417951332 8.5083155562 7.3204870846
-0.0144027086 9.9224114227 7.2908104539
2.4376523252 8.446779918 7.4192141477
2.4770461172 9.8608663764 7.3365510637
5.0027185942 8.4383807117 7.4332701025
4.9592114189 9.853606471 7.3428346268
7.4838687073 8.5129983982 7.3105297466
7.4459849779 9.9259562267 7.2845467424
-6.1770454869 10.6250473846 7.2593948407
-6.1785721055 12.0491595462 7.2516503966
-3.716507724 10.6318398054 7.2543917365
-3.7194736156 12.0587159763 7.2524208347
-1.2480854453 10.6387656622 7.2652909072
-1.2443999505 12.0594540396 7.2553265505
1.2374457233 10.6013143964 7.2918658448
1.2387754153 12.0264771167 7.2662980601
3.7188932835 10.5798132259 7.3258247043
3.7185632542 11.9999722229 7.2798050207
6.1978992854 10.5986954546 7.2902214726
6.196601442 12.0261809456 7.2646975285
3.6928735595 7.0864742408 8.1147442498
3.6928735595 7.0864742408 14.0947442498
3.3718596129 6.3606305481 14.9400814335