POSCAR-clean
1.0
14.864909406756192 0.0036276381504164 0.0
-7.4324547033281405 12.748901734272419 0.0
0.0 0.0 15.0
C N C Cr
56 1 13 1
Cartesian
7.4336875767 12.74379115 0.0009255728
0.0011012427 1.4165729701 0.0029724821
2.4800152799 0.0208172956 0.0003439447
2.4811828024 1.4431375923 0.0110424114
4.9526615952 0.0262426039 0.0019839523
4.9545440407 1.4475499421 0.0126159361
0.0011773817 12.7498992511 0.0030656105
7.4330995124 1.4256720784 0.0018479562
2.4850857606 12.7228320528 0.0112019144
9.9168056506 1.3957564855 0.0
4.9591648631 12.7192288783 0.0123107865
12.388402212 1.3933957421 0.0023843357
13.6230185017 2.1128657911 0.0031209522
-1.2468572913 3.5284856296 0.0137027119
1.2382329842 2.1394917372 0.0132933733
1.2365855326 3.5624366471 0.0375288506
3.7192576831 2.1712337896 0.0269410994
3.7212121677 3.5942657197 0.0715482758
6.1955527075 2.1500574589 0.0131573949
6.1969025599 3.5760353043 0.0369073786
8.6798743095 2.1147615476 3.5528e-06
8.6836600882 3.5332592274 0.0076184645
11.1513178595 2.1060940495 0.0004177779
11.1495684835 3.5301939718 0.0021047874
12.3815680425 4.2414897068 0.0099501246
-2.4898407704 5.6597096718 0.016723403
-0.0150682447 4.243696729 0.0389163723
-0.0405357585 5.6611418533 0.067094972
2.4752610176 4.3039023093 0.0841833983
2.4304185721 5.7138407519 0.1762397416
4.962486095 4.3271569339 0.090723532
5.0114040048 5.7477211405 0.1906702841
7.4518841784 4.2495769861 0.0301741246
7.477521539 5.6652384226 0.0497477875
9.9169869095 4.2451407764 0.0056079877
9.9229922692 5.6702468833 0.0110773004
11.1479650185 6.3781801404 0.0106541392
-3.7229624947 7.7940035597 0.011582143
-1.2685839313 6.3741624673 0.0422539037
-1.2706720677 7.7942797982 0.0415911912
1.1808797444 6.3675966468 0.1170208048
1.1792874744 7.8006290945 0.1150940266
6.2719915136 6.3789875433 0.113421851
6.274881349 7.8129994091 0.1219409867
8.6966346532 6.3875978367 0.0281132036
8.6948840966 7.8035556221 0.0283576696
-4.9504812972 8.5121727064 0.0129353189
-4.9437644176 9.9299825588 0.0077719784
-2.4942057755 8.50851158 0.0173729784
-2.4834902598 9.9290196182 0.0100231619
-0.0420838853 8.5065394545 0.0644867531
-0.015015297 9.9224841877 0.0377962986
2.4288850485 8.4534315351 0.1725838294
2.4766896041 9.8612096382 0.0858487523
5.0270921859 8.4413757653 0.2055160844
4.9625643776 9.8534590497 0.0925558187
7.4791192411 8.5058628607 0.0482422501
7.4533638099 9.909978016 0.0278805886
-6.1844095758 10.6240808166 0.0093823901
-6.1910113613 12.0473611674 0.0008695618
-3.7159301999 10.6415898962 0.0026205562
-3.7158331573 12.0641846457 0.0002483042
-1.2477551597 10.6379541233 0.013291363
-1.2432170907 12.0568065882 0.0032180379
1.2376491806 10.603404147 0.0382781451
1.2399956956 12.0258681619 0.0137387476
3.7241045145 10.5750622291 0.0731936494
3.7222780376 11.998282998 0.0269394165
6.2030338349 10.5859890726 0.0310638806
6.2030820064 12.0162495276 0.0100182674
3.6799257828 7.0838518664 0.8588992415