POSCAR-clean
1.0
14.8601789037 -0.0031452181 0.0
-7.4300894518 12.7501479922 0.0
0.0 0.0 15.0
C N C Cr C O
32 1 37 1 1 1
Cartesian
7.4307523337 12.7424422483 7.3501345339
0.0017192626 1.418716611 7.3515322178
2.4826152794 0.0241636418 7.3478248595
2.4831220518 1.4448741528 7.3580751465
4.9552368002 0.0294740329 7.3495605223
4.9571836775 1.4522006723 7.3584482169
7.4319059756 0.0001409189 7.3517568111
7.4310889635 1.4192028811 7.3497370655
2.4784430294 12.7263666017 7.3591624297
9.9083593299 1.3996359681 7.3492394444
4.95365533 12.7205602037 7.3606940365
12.3821340307 1.3904948384 7.3498124298
13.6182275734 2.1081628945 7.3512536666
-1.2469144896 3.5296493214 7.3613985715
1.2412597385 2.1430961135 7.3611411725
1.2423524316 3.565085597 7.3838892672
3.721203387 2.1691260264 7.3733898614
3.7288305528 3.586576092 7.4197175154
6.2043889429 2.1532258672 7.3568136085
6.2085100816 3.5737887905 7.3794144844
8.6665963138 2.1196814683 7.350935604
8.6676793157 3.5355013791 7.3601880272
11.1445061818 2.1028356756 7.348599907
11.1379068053 3.5207903378 7.3507779384
12.3744430728 4.234201882 7.3579853972
-2.4868750132 5.6578299444 7.3652234889
-0.0122225582 4.2445609378 7.3858106689
-0.0363603955 5.6603221044 7.4147911681
2.4851323796 4.3053500511 7.429412784
2.4372193446 5.7166716137 7.5172004443
4.9730189432 4.316859285 7.4432805937
4.9987877367 5.7284623273 7.5645919948
7.4488192056 4.2430285353 7.3786983762
7.4698407039 5.6460271071 7.3944098068
9.9030091203 4.2383512308 7.3559332877
9.9231009748 5.6580431732 7.3583773979
-3.7135940012 6.3726988759 7.3576231155
-3.7146295245 7.7944499336 7.35732767
-1.2647030431 6.3726360344 7.3915824369
-1.2654069918 7.7937656244 7.3923335969
1.1848280658 6.3667097725 7.4621572932
1.1841232245 7.7995548929 7.461975692
6.2611103845 6.3515599745 7.4617586398
6.2595843066 7.7854197812 7.4586604917
8.6988614641 6.3588140147 7.3735114027
8.6949279212 7.7821375167 7.375404938
-4.9407327574 8.5036114229 7.3578708825
-4.9460016586 9.9272694776 7.3532448267
-2.4875065414 8.5090620312 7.3648058777
-2.4821870086 9.930407067 7.3577695184
-0.0381379278 8.5072032754 7.4171127272
-0.0142942387 9.923526291 7.3868098616
2.4321108023 8.4531586625 7.5123113879
2.4752311995 9.8640285472 7.4266045216
5.0017087943 8.4243370374 7.5370591589
4.9583055573 9.8433078712 7.4404025643
7.471755972 8.49821871 7.3988540704
7.4472187522 9.9153104996 7.3798616579
-6.1810005703 10.6362507519 7.3564018048
-6.1840659541 12.0546929909 7.3485827467
-3.7135197915 10.6426968893 7.3495515383
-3.7122160273 12.0656267834 7.347977441
-1.2462922644 10.6400554882 7.3617677254
-1.242754601 12.0578896186 7.3513136151
1.2378858315 10.6044838815 7.3835679053
1.2395628963 12.026816281 7.3616395688
3.7183582006 10.5770888996 7.4200316972
3.7164151056 11.9978441251 7.3756674709
6.1943579612 10.5911383001 7.3863287187
6.1935940441 12.0174663149 7.3613393558
3.6742824541 7.0842553892 8.2220793833
3.6742824541 7.0842553892 10.7020793833
3.3532685075 6.3584116965 11.547416567