POSCAR-clean
1.0
14.840819483100827 0.0016245414959561 0.0
-7.420409741500541 12.75171401358597 0.0
0.0 0.0 15.0
C N C Cr
21 1 48 1
Cartesian
7.4211079046 12.7512891279 0.003560156
0.0009498365 1.4206671483 0.0048379572
2.47838996 0.0236557807 0.0006450951
2.4774154029 1.4447667765 0.0118648128
4.9496152737 0.0228718424 0.0018072343
4.9510258804 1.4458756147 0.0120754904
7.4288533415 0.0067263947 0.0047711984
7.4258001391 1.4339158054 0.0035858838
2.4706647405 12.7360550544 0.0131714947
9.8934584951 1.4092295137 0.0024530885
4.9459172899 12.7275826983 0.0131270889
12.3648535228 1.3988511941 0.0024962603
13.5998555952 2.1164022869 0.0045789599
-1.2492639241 3.5314679825 0.0157962112
1.2381063808 2.1432325134 0.0148169111
1.2363527522 3.5657158218 0.0386640495
3.7146201104 2.1705001611 0.0278398695
3.7188659045 3.5864580346 0.0727444813
6.1855635936 2.1421946415 0.0126983373
6.2018061767 3.5638016331 0.0375681563
8.6644037591 2.1275841126 0.0034628236
8.6687398241 3.5320631148 0.0118097152
11.1351393503 2.1070467926 0.0011727737
11.120311866 3.5246501977 0.0026926333
12.3553146261 4.241624255 0.0112160165
-2.4856421931 5.6598161318 0.0187121676
-0.0142678746 4.2463765338 0.0412658978
-0.0379497315 5.6612245081 0.069510437
2.4751941311 4.3063875319 0.0830035178
2.429621939 5.7185132029 0.1693935992
4.9637262747 4.3107974758 0.0918605764
5.0001654725 5.7210656499 0.1915827271
7.4499855232 4.2403582196 0.0360342674
7.4709356237 5.6527036333 0.0592988345
9.889970496 4.2336566508 0.0073402215
9.8978725585 5.6521961368 0.0116583181
11.1302511555 6.3677136389 0.0093587507
-3.7104392347 7.789344015 0.0092742657
-1.2644057533 6.3743540989 0.0471753362
-1.2643044135 7.7943619549 0.0468980457
1.1821306445 6.368093844 0.1162395405
1.1814256034 7.8037056231 0.1174457953
6.2479211009 6.3579982439 0.1192560857
6.2443687062 7.7969085369 0.1164557634
8.6888978132 6.3775477047 0.0338340857
8.6870818342 7.7929385424 0.0342416523
-4.932670357 8.5066143655 0.0116469847
-4.939672223 9.9283556999 0.0061309203
-2.4835982863 8.5059945038 0.0180064694
-2.4766158488 9.9311683036 0.010327361
-0.0366998418 8.5096707208 0.0700417091
-0.0123660746 9.9260292834 0.0417754258
2.4282066907 8.4557712225 0.1745972811
2.4698439218 9.8677853205 0.0841263132
4.9950055356 8.4417919247 0.1823062209
4.9507967302 9.8603632745 0.087639589
7.4593317017 8.5065665148 0.0587761689
7.4355222772 9.9227830205 0.0351531379
-6.1733762261 10.636630459 0.0101402152
-6.1769354196 12.0569526286 0.001601303
-3.7063393558 10.6426564446 0.0014175124
-3.7060606103 12.0640770683 0.0
-1.242340995 10.6417670194 0.0154076152
-1.2370909275 12.0622037588 0.0041300962
1.2357547958 10.6081250018 0.0394456736
1.2372242929 12.0333084395 0.0153272499
3.7117671172 10.5880857512 0.0713476608
3.7094705446 12.008392726 0.0284786717
6.1849012906 10.6024309267 0.0384164467
6.1830118185 12.0276383321 0.0142966457
3.6944406296 7.0867140346 0.8629333939