POSCAR-clean
1.0
14.8408194831 0.0016245415 0.0
-7.4204097415 12.7517140136 0.0
0.0 0.0 15.0
C N C Cr C O
21 1 48 1 1 1
Cartesian
7.4211079046 12.7512891279 7.3504920653
0.0009498365 1.4206671483 7.3517698665
2.47838996 0.0236557807 7.3475770044
2.4774154029 1.4447667765 7.3587967221
4.9496152737 0.0228718424 7.3487391436
4.9510258804 1.4458756147 7.3590073997
7.4288533415 0.0067263947 7.3517031077
7.4258001391 1.4339158054 7.3505177931
2.4706647405 12.7360550544 7.360103404
9.8934584951 1.4092295137 7.3493849978
4.9459172899 12.7275826983 7.3600589982
12.3648535228 1.3988511941 7.3494281696
13.5998555952 2.1164022869 7.3515108692
-1.2492639241 3.5314679825 7.3627281205
1.2381063808 2.1432325134 7.3617488204
1.2363527522 3.5657158218 7.3855959588
3.7146201104 2.1705001611 7.3747717788
3.7188659045 3.5864580346 7.4196763906
6.1855635936 2.1421946415 7.3596302466
6.2018061767 3.5638016331 7.3845000656
8.6644037591 2.1275841126 7.3503947329
8.6687398241 3.5320631148 7.3587416245
11.1351393503 2.1070467926 7.348104683
11.120311866 3.5246501977 7.3496245426
12.3553146261 4.241624255 7.3581479258
-2.4856421931 5.6598161318 7.3656440769
-0.0142678746 4.2463765338 7.3881978071
-0.0379497315 5.6612245081 7.4164423463
2.4751941311 4.3063875319 7.4299354271
2.429621939 5.7185132029 7.5163255085
4.9637262747 4.3107974758 7.4387924857
5.0001654725 5.7210656499 7.5385146364
7.4499855232 4.2403582196 7.3829661767
7.4709356237 5.6527036333 7.4062307438
9.889970496 4.2336566508 7.3542721308
9.8978725585 5.6521961368 7.3585902274
11.1302511555 6.3677136389 7.35629066
-3.7104392347 7.789344015 7.356206175
-1.2644057533 6.3743540989 7.3941072455
-1.2643044135 7.7943619549 7.393829955
1.1821306445 6.368093844 7.4631714498
1.1814256034 7.8037056231 7.4643777046
6.2479211009 6.3579982439 7.466187995
6.2443687062 7.7969085369 7.4633876727
8.6888978132 6.3775477047 7.380765995
8.6870818342 7.7929385424 7.3811735616
-4.932670357 8.5066143655 7.358578894
-4.939672223 9.9283556999 7.3530628296
-2.4835982863 8.5059945038 7.3649383787
-2.4766158488 9.9311683036 7.3572592703
-0.0366998418 8.5096707208 7.4169736184
-0.0123660746 9.9260292834 7.3887073351
2.4282066907 8.4557712225 7.5215291904
2.4698439218 9.8677853205 7.4310582225
4.9950055356 8.4417919247 7.5292381302
4.9507967302 9.8603632745 7.4345714983
7.4593317017 8.5065665148 7.4057080782
7.4355222772 9.9227830205 7.3820850472
-6.1733762261 10.636630459 7.3570721245
-6.1769354196 12.0569526286 7.3485332123
-3.7063393558 10.6426564446 7.3483494217
-3.7060606103 12.0640770683 7.3469319093
-1.242340995 10.6417670194 7.3623395245
-1.2370909275 12.0622037588 7.3510620055
1.2357547958 10.6081250018 7.3863775829
1.2372242929 12.0333084395 7.3622591592
3.7117671172 10.5880857512 7.4182795701
3.7094705446 12.008392726 7.375410581
6.1849012906 10.6024309267 7.385348356
6.1830118185 12.0276383321 7.361228555
3.6944406296 7.0867140346 8.2098653032
3.6944406296 7.0867140346 10.6898653032
3.373426683 6.3608703419 11.5352024869