POSCAR-c3n4
0.86
13.8434242346 -0.190740474 0.0
-6.9217121174 11.6951909939 0.0
0.0 0.0 15.0
C N Ge C O
24 32 1 1 1
Cartesian
-0.0149534066 2.4769891554 6.6644118081
1.2206073451 4.6076052329 6.7648212321
-1.2748902218 4.5620640663 6.6767600961
5.7506808922 0.6612841331 7.8528560211
3.4880543574 4.6063553697 6.4553314386
1.1858997874 0.5954256003 6.9976693551
-3.5934096387 8.3075480293 7.5259686096
-2.2245325413 10.355229205 7.7854678731
-4.6828519457 10.450701721 7.7393299086
2.4058454244 6.3266954371 7.7960066511
0.039411223 10.2676395571 7.6019996136
-2.5491802681 6.3234371289 7.4775173346
6.9865645411 2.4896475991 7.3580171406
8.1038847101 4.4085915022 6.2656903221
5.7203206549 4.4952637194 6.7993737246
12.644133914 0.432429271 7.1779525641
10.347324234 4.3410960104 6.1756500126
8.1675290702 0.6481928627 7.9479246906
3.5665748784 8.2004714627 8.2361811981
4.7235456933 10.3431224429 8.1106511136
2.2592693015 10.321510029 8.0873548671
9.0937862697 6.4034777797 6.5750926416
6.9701756675 10.3637382575 8.2874172411
4.7618326573 6.3682889142 7.6153535301
-0.0143545899 3.8913851712 6.6428747541
1.1663688332 1.8511557542 6.5817304146
4.6425652415 -0.0430099494 8.0998143846
4.6447862542 4.0245746302 6.1532415546
2.2750909497 4.1532361166 6.1137426366
5.7767220953 1.9705011011 7.6647250026
-4.6427719793 11.5271337967 6.9672976776
0.0168260121 0.0213869775 7.5100767321
-3.4717785011 9.6853226633 7.7713429761
-2.6112404649 7.5209719922 8.0342691876
1.2200524639 5.6805851381 7.6407088236
1.2112002572 9.6202252249 7.6133007576
-1.1295054931 9.6356154515 7.4580553761
2.42268065 7.4836748111 8.4399558141
-1.385538431 5.6293009823 7.5441910626
10.2499101978 5.6117700653 6.8072691891
6.9533792998 3.7339184889 6.7072150596
8.1771848393 1.9523433611 7.6960151751
4.6249414916 11.3763069806 7.2851873496
-2.2575552407 4.0690022757 5.9494861356
9.2113741695 3.7029417659 5.9603786961
12.6314649188 1.6937471511 6.7944126651
9.2231181554 -0.0662462615 8.3596632786
6.9619585121 -0.0508772127 7.7420869296
3.4908331673 9.6061589951 8.2804374426
4.7428573248 7.6545012503 7.9544194101
8.0122898217 5.7668743313 6.2036489796
-5.6848528816 9.9729164739 8.4976077216
5.8067784991 9.8907843407 8.7581947221
-4.6291049666 7.9199208049 6.7857710916
5.840437551 5.6182614068 7.5247607421
3.5267159812 5.7721550817 7.2748682421
-0.1339422181 6.8791707283 8.6343712806
-0.1339422181 6.8791707283 11.1143712806
-0.4549561647 6.1533270356 11.9597084643