POSCAR-c3n4                             
  0.81999999999999995     
    13.8434242346000005   -0.1907404740000000    0.0000000000000000
    -6.9217121174000003   11.6951909939000007    0.0000000000000000
     0.0000000000000000    0.0000000000000000   15.0000000000000000
   C    N    Ge   C    O 
    24    32     1     1     1
Direct
  0.0567635552611847  0.1453371734023818  0.3344973791093580
  0.2433002668748188  0.3764268817711169  0.4170472567523404
  0.0257446923186748  0.3239535830593994  0.3950847196316047
  0.4685889505797789  0.0685028125183536  0.5386413563148835
  0.4553684705301748  0.4350314925459386  0.3777792954558947
  0.1547420653646938  0.0636231710567117  0.4102618469062094
  0.0529432719535805  0.7089241115131770  0.5083172256053388
  0.2579306405516562  0.8738983996763210  0.6003478850237656
  0.2667370679275507  0.0762879755513097  0.5598598461373996
  0.4095355716034348  0.5345937474504154  0.5334827715978463
  0.4601571527574251  0.8869475575408075  0.6433377826710540
  0.0036430537646908  0.4854728431962059  0.4704144185763255
  0.6493074028222736  0.2131013834402751  0.4287966535826442
  0.7606193233545966  0.4128403921774009  0.2666342916965547
  0.6234334931833558  0.3979454363999579  0.3982097087181700
  0.9114211252630540  0.9735129020157558  0.4335013782555350
  0.9341620478567165  0.4051195110574142  0.2843760262488004
  0.6745874726307477  0.0720194690188620  0.5492834226668251
  0.5998225176317362  0.6808152358894688  0.6341634991046092
  0.8241762086686535  0.8806805617606059  0.5956164927802163
  0.6628692776672338  0.9190230525450787  0.6737112279229223
  0.9122926947360241  0.5960147387396262  0.3612282995148632
  0.0532786971223373  0.0148664870660440  0.5924202509756427
  0.6127184566027850  0.5209304243845736  0.5343662607246245
  0.1059241715325285  0.2644005016514299  0.3995849708290677
  0.1480958756010935  0.1065992097702946  0.3119730220966801
  0.3513437725569872  0.0279942663128097  0.6010434884538398
  0.5347759065098074  0.3993146185401173  0.3289633884771206
  0.3291838855226814  0.3873493783622663  0.3401832257026811
  0.5233263300159692  0.1737272702621198  0.4735358923768800
  0.2657862415202672  0.0752154673893060  0.4535042003408307
  0.0395931492760724  0.0125055076078482  0.4809407641031314
  0.1388267742033236  0.8315976735487993  0.5577905503237517
  0.0564860312044928  0.5926549933753691  0.5418441954631135
  0.2753812997529081  0.4626085107196189  0.5062693137020204
  0.5319263772054370  0.8629196730117386  0.7121157944171657
  0.3183120127849008  0.8049074475293594  0.6375256134329561
  0.4647453785178755  0.6341258022414564  0.6094852299301010
  0.0136238239315887  0.3752085614399121  0.4901823690802445
  0.9567485037023218  0.4994647229361178  0.3726056600614953
  0.6840809373779138  0.3250853808614735  0.3566131245601838
  0.7296469177073348  0.1691263900245801  0.4697565040526683
  0.7987511996816608  0.8788055792471354  0.4894592234601376
  0.0044807528100463  0.3410511429999730  0.2932490709201403
  0.8427203423603231  0.3789062372726519  0.2098253972742370
  0.9189728499321461  0.0463265001644544  0.3462722212320983
  0.7428569968990573  0.0405773109371665  0.6184550491057266
  0.5259704639542875  0.9884588275773751  0.5597231415808608
  0.6981299740577640  0.8199732030801243  0.6614077139429639
  0.6620550555443785  0.6081174829703500  0.6171475441360670
  0.8125754836141681  0.5578175770878886  0.2901781312658116
  0.1800168609304365  0.0740073972017541  0.6348473062228948
  0.9392158035522442  0.9494317249542803  0.6534194603618673
  0.9753155191947940  0.7099084357034755  0.4272333081149711
  0.6710553928811507  0.4545146233614332  0.4955057059421364
  0.4945588793984825  0.5001894224649561  0.4794558201122072
  0.2014287201463887  0.5783779832804115  0.6462337354507426
  0.2342114653432859  0.5782335292893848  0.9125637824745354
  0.2658546553416912  0.5299508146906646  0.9797267848986309

  0.00000000E+00  0.00000000E+00  0.00000000E+00
  0.00000000E+00  0.00000000E+00  0.00000000E+00
  0.00000000E+00  0.00000000E+00  0.00000000E+00
  0.00000000E+00  0.00000000E+00  0.00000000E+00
  0.00000000E+00  0.00000000E+00  0.00000000E+00
  0.00000000E+00  0.00000000E+00  0.00000000E+00
  0.00000000E+00  0.00000000E+00  0.00000000E+00
  0.00000000E+00  0.00000000E+00  0.00000000E+00
  0.00000000E+00  0.00000000E+00  0.00000000E+00
  0.00000000E+00  0.00000000E+00  0.00000000E+00
  0.00000000E+00  0.00000000E+00  0.00000000E+00
  0.00000000E+00  0.00000000E+00  0.00000000E+00
  0.00000000E+00  0.00000000E+00  0.00000000E+00
  0.00000000E+00  0.00000000E+00  0.00000000E+00
  0.00000000E+00  0.00000000E+00  0.00000000E+00
  0.00000000E+00  0.00000000E+00  0.00000000E+00
  0.00000000E+00  0.00000000E+00  0.00000000E+00
  0.00000000E+00  0.00000000E+00  0.00000000E+00
  0.00000000E+00  0.00000000E+00  0.00000000E+00
  0.00000000E+00  0.00000000E+00  0.00000000E+00
  0.00000000E+00  0.00000000E+00  0.00000000E+00
  0.00000000E+00  0.00000000E+00  0.00000000E+00
  0.00000000E+00  0.00000000E+00  0.00000000E+00
  0.00000000E+00  0.00000000E+00  0.00000000E+00
  0.00000000E+00  0.00000000E+00  0.00000000E+00
  0.00000000E+00  0.00000000E+00  0.00000000E+00
  0.00000000E+00  0.00000000E+00  0.00000000E+00
  0.00000000E+00  0.00000000E+00  0.00000000E+00
  0.00000000E+00  0.00000000E+00  0.00000000E+00
  0.00000000E+00  0.00000000E+00  0.00000000E+00
  0.00000000E+00  0.00000000E+00  0.00000000E+00
  0.00000000E+00  0.00000000E+00  0.00000000E+00
  0.00000000E+00  0.00000000E+00  0.00000000E+00
  0.00000000E+00  0.00000000E+00  0.00000000E+00
  0.00000000E+00  0.00000000E+00  0.00000000E+00
  0.00000000E+00  0.00000000E+00  0.00000000E+00
  0.00000000E+00  0.00000000E+00  0.00000000E+00
  0.00000000E+00  0.00000000E+00  0.00000000E+00
  0.00000000E+00  0.00000000E+00  0.00000000E+00
  0.00000000E+00  0.00000000E+00  0.00000000E+00
  0.00000000E+00  0.00000000E+00  0.00000000E+00
  0.00000000E+00  0.00000000E+00  0.00000000E+00
  0.00000000E+00  0.00000000E+00  0.00000000E+00
  0.00000000E+00  0.00000000E+00  0.00000000E+00
  0.00000000E+00  0.00000000E+00  0.00000000E+00
  0.00000000E+00  0.00000000E+00  0.00000000E+00
  0.00000000E+00  0.00000000E+00  0.00000000E+00
  0.00000000E+00  0.00000000E+00  0.00000000E+00
  0.00000000E+00  0.00000000E+00  0.00000000E+00
  0.00000000E+00  0.00000000E+00  0.00000000E+00
  0.00000000E+00  0.00000000E+00  0.00000000E+00
  0.00000000E+00  0.00000000E+00  0.00000000E+00
  0.00000000E+00  0.00000000E+00  0.00000000E+00
  0.00000000E+00  0.00000000E+00  0.00000000E+00
  0.00000000E+00  0.00000000E+00  0.00000000E+00
  0.00000000E+00  0.00000000E+00  0.00000000E+00
  0.00000000E+00  0.00000000E+00  0.00000000E+00
  0.00000000E+00  0.00000000E+00  0.00000000E+00
  0.00000000E+00  0.00000000E+00  0.00000000E+00
