POSCAR-clean                            
   1.00000000000000     
    14.8601789037430319   -0.0031452180979795    0.0000000000000000
    -7.4300894518215781   12.7501479922096905    0.0000000000000000
     0.0000000000000000    0.0000000000000000   15.0000000000000000
   C    N    C    Cr
    32     1    37     1
Direct
  0.9998780629671397  0.9996785493164922  0.4976832774195650
  0.0557859084863600  0.1113263487813639  0.4977864821871746
  0.1680028519920757  0.0019135374925254  0.4975567442981440
  0.2238681838564142  0.1134560185468652  0.4982879473493691
  0.3346361324233345  0.0023268994596612  0.4976992090255259
  0.3906340513691574  0.1140758571884868  0.4983289146021573
  0.5002049668523918  0.0001719965984131  0.4978167061197301
  0.5557686838704772  0.1113642001474330  0.4976971657770993
  0.6658760308260346  0.9982558098154073  0.4983262295876293
  0.7217476781902665  0.1100046650173618  0.4976138376292060
  0.8322555462136465  0.9978542446157820  0.4984340048484705
  0.8878658800796639  0.1093584041237059  0.4976859995936537
  0.9991660277879865  0.1655958372786627  0.4977779000418964
  0.0544402647872010  0.2768694683242345  0.4984743612243140
  0.1675887639000596  0.1681249178381030  0.4984394292957558
  0.2234623112907124  0.2797472276255435  0.4999875646360932
  0.3354839383233579  0.1701171256251871  0.4992638821039111
  0.3917662076642501  0.2815600874488938  0.5022730297088688
  0.5019907071601069  0.1689747747418521  0.4981701209081270
  0.5580674794356966  0.2804314199793873  0.4995728931008377
  0.6664086053718491  0.1664140487707758  0.4977354437159188
  0.7220735390744102  0.2774788789677694  0.4984013686493656
  0.8324721026269434  0.1651332161483864  0.4975756158779527
  0.8876677837063232  0.2763803546089497  0.4977270200037902
  0.9988202650686604  0.3322874401019910  0.4982240273079891
  0.0544976256986905  0.4437830105659244  0.4987078191163596
  0.1655903957754239  0.3329196275771910  0.5000844142929221
  0.2194590351139828  0.4439297139041027  0.5019097854919323
  0.3361118207684315  0.3377572548930904  0.5031368212422893
  0.3886998233092487  0.4487770462694741  0.5090565768855233
  0.5039316513661609  0.3384818492568230  0.5037940411294251
  0.5612485893822909  0.4498961746619750  0.5119332727848097
  0.6676941174779837  0.3328727787422912  0.4996298883725158
  0.7242611465217555  0.4430027080221802  0.5005813029054070
  0.8326157341060562  0.3325662344203863  0.4980989924964723
  0.8897954561902611  0.4440100248462795  0.4983090879349944
  0.9999015327220019  0.4997473353592285  0.4982061326993826
  0.0557142682230813  0.6113772194907983  0.4981816376158494
  0.1647199241784620  0.4997963304698856  0.5004255368960389
  0.2205063707741629  0.6113636426767114  0.5004901735666460
  0.3294972261474617  0.4995119566950803  0.5051358331773286
  0.3855970357669737  0.6116990807872661  0.5051052617221751
  0.6705295186352886  0.4983127476744560  0.5048767950550122
  0.7266030219118699  0.6106747540673054  0.5047576031651817
  0.8347504121341950  0.4988500760411994  0.4993741814418003
  0.8904245590861586  0.6106058933049907  0.4994962366604139
  0.0009707596997353  0.6669231802443372  0.4982627284282322
  0.0564934776133039  0.7786568548040276  0.4979114464698358
  0.1662305553853115  0.6673599143996758  0.4986836363886016
  0.2224524215876901  0.7789667048953106  0.4982133716062506
  0.3310081874419845  0.6673741656083232  0.5020659643128814
  0.3882186832884229  0.7783912186030939  0.5001519921845051
  0.4953786431872921  0.6628478520244072  0.5087184476610612
  0.5534459931040923  0.7737767160985375  0.5029473970834621
  0.6667599756701857  0.6605312156537484  0.5100680027452318
  0.7198645138572705  0.7723333549535362  0.5037244693160531
  0.8362415806652439  0.6667432202282323  0.5009786967992295
  0.8901341038384650  0.7778826027730376  0.4997269754016223
  0.0011960913347913  0.8341969176421694  0.4981306994905020
  0.0566293564926410  0.9455060626255927  0.4975662524586318
  0.1674639340179803  0.8347346061711159  0.4976561451275437
  0.2234050519989583  0.9463913577047064  0.4975720616784143
  0.3333603456314575  0.8345798130866989  0.4984918887532916
  0.3892568444399829  0.9458111285565119  0.4977801169387160
  0.4991598685687980  0.8317821050059725  0.4999496800339501
  0.5551489595023237  0.9434313616199115  0.4984642564818731
  0.6650069427712745  0.8295741348580065  0.5023309894374244
  0.7207176316782264  0.9412654481801738  0.4993966977459021
  0.8323093555904665  0.8308587548743372  0.5000939847310648
  0.8882153005982361  0.9428425664743252  0.4984341945975608
  0.5250703445383483  0.5556218567538834  0.5555093134763810
 
  0.00000000E+00  0.00000000E+00  0.00000000E+00
  0.00000000E+00  0.00000000E+00  0.00000000E+00
  0.00000000E+00  0.00000000E+00  0.00000000E+00
  0.00000000E+00  0.00000000E+00  0.00000000E+00
  0.00000000E+00  0.00000000E+00  0.00000000E+00
  0.00000000E+00  0.00000000E+00  0.00000000E+00
  0.00000000E+00  0.00000000E+00  0.00000000E+00
  0.00000000E+00  0.00000000E+00  0.00000000E+00
  0.00000000E+00  0.00000000E+00  0.00000000E+00
  0.00000000E+00  0.00000000E+00  0.00000000E+00
  0.00000000E+00  0.00000000E+00  0.00000000E+00
  0.00000000E+00  0.00000000E+00  0.00000000E+00
  0.00000000E+00  0.00000000E+00  0.00000000E+00
  0.00000000E+00  0.00000000E+00  0.00000000E+00
  0.00000000E+00  0.00000000E+00  0.00000000E+00
  0.00000000E+00  0.00000000E+00  0.00000000E+00
  0.00000000E+00  0.00000000E+00  0.00000000E+00
  0.00000000E+00  0.00000000E+00  0.00000000E+00
  0.00000000E+00  0.00000000E+00  0.00000000E+00
  0.00000000E+00  0.00000000E+00  0.00000000E+00
  0.00000000E+00  0.00000000E+00  0.00000000E+00
  0.00000000E+00  0.00000000E+00  0.00000000E+00
  0.00000000E+00  0.00000000E+00  0.00000000E+00
  0.00000000E+00  0.00000000E+00  0.00000000E+00
  0.00000000E+00  0.00000000E+00  0.00000000E+00
  0.00000000E+00  0.00000000E+00  0.00000000E+00
  0.00000000E+00  0.00000000E+00  0.00000000E+00
  0.00000000E+00  0.00000000E+00  0.00000000E+00
  0.00000000E+00  0.00000000E+00  0.00000000E+00
  0.00000000E+00  0.00000000E+00  0.00000000E+00
  0.00000000E+00  0.00000000E+00  0.00000000E+00
  0.00000000E+00  0.00000000E+00  0.00000000E+00
  0.00000000E+00  0.00000000E+00  0.00000000E+00
  0.00000000E+00  0.00000000E+00  0.00000000E+00
  0.00000000E+00  0.00000000E+00  0.00000000E+00
  0.00000000E+00  0.00000000E+00  0.00000000E+00
  0.00000000E+00  0.00000000E+00  0.00000000E+00
  0.00000000E+00  0.00000000E+00  0.00000000E+00
  0.00000000E+00  0.00000000E+00  0.00000000E+00
  0.00000000E+00  0.00000000E+00  0.00000000E+00
  0.00000000E+00  0.00000000E+00  0.00000000E+00
  0.00000000E+00  0.00000000E+00  0.00000000E+00
  0.00000000E+00  0.00000000E+00  0.00000000E+00
  0.00000000E+00  0.00000000E+00  0.00000000E+00
  0.00000000E+00  0.00000000E+00  0.00000000E+00
  0.00000000E+00  0.00000000E+00  0.00000000E+00
  0.00000000E+00  0.00000000E+00  0.00000000E+00
  0.00000000E+00  0.00000000E+00  0.00000000E+00
  0.00000000E+00  0.00000000E+00  0.00000000E+00
  0.00000000E+00  0.00000000E+00  0.00000000E+00
  0.00000000E+00  0.00000000E+00  0.00000000E+00
  0.00000000E+00  0.00000000E+00  0.00000000E+00
  0.00000000E+00  0.00000000E+00  0.00000000E+00
  0.00000000E+00  0.00000000E+00  0.00000000E+00
  0.00000000E+00  0.00000000E+00  0.00000000E+00
  0.00000000E+00  0.00000000E+00  0.00000000E+00
  0.00000000E+00  0.00000000E+00  0.00000000E+00
  0.00000000E+00  0.00000000E+00  0.00000000E+00
  0.00000000E+00  0.00000000E+00  0.00000000E+00
  0.00000000E+00  0.00000000E+00  0.00000000E+00
  0.00000000E+00  0.00000000E+00  0.00000000E+00
  0.00000000E+00  0.00000000E+00  0.00000000E+00
  0.00000000E+00  0.00000000E+00  0.00000000E+00
  0.00000000E+00  0.00000000E+00  0.00000000E+00
  0.00000000E+00  0.00000000E+00  0.00000000E+00
  0.00000000E+00  0.00000000E+00  0.00000000E+00
  0.00000000E+00  0.00000000E+00  0.00000000E+00
  0.00000000E+00  0.00000000E+00  0.00000000E+00
  0.00000000E+00  0.00000000E+00  0.00000000E+00
  0.00000000E+00  0.00000000E+00  0.00000000E+00
  0.00000000E+00  0.00000000E+00  0.00000000E+00
