POSCAR-c3n4                             
   1.0800000000000001     
    13.8434242346000005   -0.1907404740000000    0.0000000000000000
    -6.9217121174000003   11.6951909939000007    0.0000000000000000
     0.0000000000000000    0.0000000000000000   15.0000000000000018
   C    N    Ge   C    O 
    24    32     1     1     1
Direct
  0.1070172917941958  0.2128523468218163  0.4855425021860910
  0.2870645536181846  0.3921196403126090  0.4857191147339004
  0.1034369402303170  0.3918225484749709  0.4855423928171609
  0.4460967593227413  0.0561744549072001  0.4980337889523307
  0.4431199387874633  0.3870128223263664  0.4779734367907771
  0.1096274733742085  0.0554491188619650  0.4852425298513669
  0.1062201358801000  0.7143556218240549  0.4956676523364944
  0.2884205796303000  0.8930334889608277  0.4932976346389245
  0.1029584554846718  0.8946698867801552  0.4982509057957065
  0.4511076918168452  0.5555336905811632  0.4984081667887705
  0.4443385398772355  0.8895550918321318  0.4832410057471992
  0.1042565216800399  0.5545851961809742  0.5019293664600274
  0.6074545513170715  0.2153777492282597  0.4929731433611717
  0.7878222000105699  0.3922007129056617  0.4768612534340525
  0.6038511305385085  0.3944056173961894  0.4775118190610391
  0.9461018436122907  0.0550574680549515  0.4911144591641641
  0.9418505026572680  0.3858107984118260  0.4749968315159982
  0.6113016757188512  0.0583943398595659  0.4996761884149210
  0.6105320187025420  0.7157911632116103  0.4930793825015541
  0.7893142998075834  0.8936900455689174  0.5011848793777042
  0.6048236994980947  0.8962284175725880  0.4942103227082224
  0.9444547315666321  0.5557953181927915  0.4831768428718431
  0.9431155865998231  0.8877008873126605  0.5098366077490625
  0.6134883064458631  0.5582752413449119  0.4807547875664618
  0.1668141909899249  0.3332864936578085  0.4854527812446606
  0.1607848951211517  0.1621774231826485  0.4805054890136990
  0.3399067723611709 -0.0016630910059691  0.5049223493453995
  0.4977386552812127  0.3376991455684807  0.4722161792074263
  0.3374299175046087  0.3404438622776296  0.4737844315317877
  0.5015451945189995  0.1626982893489839  0.4974763721391479
  0.1586212002351916  0.9990369893733845  0.4819507365178362
 -0.0006557916341502 -0.0014445336852525  0.4935999345175545
  0.1671382685743920  0.8324127840421434  0.4960788664401758
  0.1574923929613594  0.6605466242373217  0.5118512433659730
  0.3428052963740046  0.5023559092949836  0.5000114656237167
  0.4992834897200885  0.8386325947495188  0.4805028894989770
  0.3380184275837319  0.8375810703618973  0.4788803531840655
  0.5044440306628022  0.6614971735613744  0.5069332161529146
  0.1589816084495089  0.5015768954217493  0.5032805189768067
  0.9980748090866625  0.4987346779556913  0.4909053547959019
  0.6663898381141619  0.3323771353320368  0.4816149920023005
  0.6617860528760846  0.1646876542515614  0.5013945823693318
  0.8402991680145059  0.9989070079004850  0.4888160235456853
  0.0011107381459476  0.3397772300541622  0.4698880894048046
  0.8374326737277793  0.3368996477178474  0.4669651669196451
  0.0021321967115085  0.1620419228391329  0.4904213310139962
  0.6601911698034337  0.0013749584620010  0.5056689322382298
  0.5004053453710509  0.0006467208566344  0.4914601957131651
  0.6681657532174125  0.8339443277846041  0.4964545895346879
  0.6625893166948745  0.6662833419415354  0.4763457941959631
  0.8404044420624015  0.5002594357956170  0.4799974415037627
 -0.0002474986259230  0.8386841156034974  0.5167379588440186
  0.8375286864506343  0.8384349189142966  0.5182100953731097
  0.0038266188308911  0.6636829533894870  0.4790800427803560
  0.6613102013253976  0.5028091436700519  0.4768393187097114
  0.5017949719543254  0.5007876260818529  0.4895672965738315
  0.3143630841918466  0.6262776682953627  0.5283870557131919
  0.2968141332219303  0.5984373301898119  0.7434446843957271
  0.2276256037426737  0.5275453972987092  0.7761292126608486

  0.00000000E+00  0.00000000E+00  0.00000000E+00
  0.00000000E+00  0.00000000E+00  0.00000000E+00
  0.00000000E+00  0.00000000E+00  0.00000000E+00
  0.00000000E+00  0.00000000E+00  0.00000000E+00
  0.00000000E+00  0.00000000E+00  0.00000000E+00
  0.00000000E+00  0.00000000E+00  0.00000000E+00
  0.00000000E+00  0.00000000E+00  0.00000000E+00
  0.00000000E+00  0.00000000E+00  0.00000000E+00
  0.00000000E+00  0.00000000E+00  0.00000000E+00
  0.00000000E+00  0.00000000E+00  0.00000000E+00
  0.00000000E+00  0.00000000E+00  0.00000000E+00
  0.00000000E+00  0.00000000E+00  0.00000000E+00
  0.00000000E+00  0.00000000E+00  0.00000000E+00
  0.00000000E+00  0.00000000E+00  0.00000000E+00
  0.00000000E+00  0.00000000E+00  0.00000000E+00
  0.00000000E+00  0.00000000E+00  0.00000000E+00
  0.00000000E+00  0.00000000E+00  0.00000000E+00
  0.00000000E+00  0.00000000E+00  0.00000000E+00
  0.00000000E+00  0.00000000E+00  0.00000000E+00
  0.00000000E+00  0.00000000E+00  0.00000000E+00
  0.00000000E+00  0.00000000E+00  0.00000000E+00
  0.00000000E+00  0.00000000E+00  0.00000000E+00
  0.00000000E+00  0.00000000E+00  0.00000000E+00
  0.00000000E+00  0.00000000E+00  0.00000000E+00
  0.00000000E+00  0.00000000E+00  0.00000000E+00
  0.00000000E+00  0.00000000E+00  0.00000000E+00
  0.00000000E+00  0.00000000E+00  0.00000000E+00
  0.00000000E+00  0.00000000E+00  0.00000000E+00
  0.00000000E+00  0.00000000E+00  0.00000000E+00
  0.00000000E+00  0.00000000E+00  0.00000000E+00
  0.00000000E+00  0.00000000E+00  0.00000000E+00
  0.00000000E+00  0.00000000E+00  0.00000000E+00
  0.00000000E+00  0.00000000E+00  0.00000000E+00
  0.00000000E+00  0.00000000E+00  0.00000000E+00
  0.00000000E+00  0.00000000E+00  0.00000000E+00
  0.00000000E+00  0.00000000E+00  0.00000000E+00
  0.00000000E+00  0.00000000E+00  0.00000000E+00
  0.00000000E+00  0.00000000E+00  0.00000000E+00
  0.00000000E+00  0.00000000E+00  0.00000000E+00
  0.00000000E+00  0.00000000E+00  0.00000000E+00
  0.00000000E+00  0.00000000E+00  0.00000000E+00
  0.00000000E+00  0.00000000E+00  0.00000000E+00
  0.00000000E+00  0.00000000E+00  0.00000000E+00
  0.00000000E+00  0.00000000E+00  0.00000000E+00
  0.00000000E+00  0.00000000E+00  0.00000000E+00
  0.00000000E+00  0.00000000E+00  0.00000000E+00
  0.00000000E+00  0.00000000E+00  0.00000000E+00
  0.00000000E+00  0.00000000E+00  0.00000000E+00
  0.00000000E+00  0.00000000E+00  0.00000000E+00
  0.00000000E+00  0.00000000E+00  0.00000000E+00
  0.00000000E+00  0.00000000E+00  0.00000000E+00
  0.00000000E+00  0.00000000E+00  0.00000000E+00
  0.00000000E+00  0.00000000E+00  0.00000000E+00
  0.00000000E+00  0.00000000E+00  0.00000000E+00
  0.00000000E+00  0.00000000E+00  0.00000000E+00
  0.00000000E+00  0.00000000E+00  0.00000000E+00
  0.00000000E+00  0.00000000E+00  0.00000000E+00
  0.00000000E+00  0.00000000E+00  0.00000000E+00
  0.00000000E+00  0.00000000E+00  0.00000000E+00
