POSCAR-clean
1.0
14.8571429463 0.0074808514 0.0
-7.4285714731 12.7495032627 0.0
0.0 0.0 15.0
C N C Cr C O
8 1 61 1 1 1
Cartesian
7.4246786662 12.7548844422 7.2536031038
-0.0001334805 1.4183192171 7.2548506748
2.481186513 0.0258979603 7.2519240005
2.4795263826 1.4465515069 7.2625542296
4.9577756433 0.0282107891 7.2548216216
4.954204799 1.4459475204 7.2645836038
7.4430103463 0.0042540233 7.2546447714
7.4279344376 1.4241967775 7.2538951905
2.4800274759 12.7263230495 7.2634916469
9.9096948435 1.3847062209 7.2535020534
4.9411939047 12.731679207 7.2638788179
12.3815639723 1.3984048735 7.254785429
13.6123899786 2.1163032762 7.256138885
-1.2495484121 3.5293268482 7.2662636681
1.2381474426 2.1440500013 7.264467462
1.2361916939 3.5675944401 7.290193958
3.7167028508 2.1709022662 7.2800256428
3.7159949519 3.5904825522 7.327021466
6.1971679657 2.1446762004 7.2649343141
6.1984426973 3.5707625179 7.2898870525
8.6796629696 2.1027174309 7.2524591268
8.6856260103 3.5256306031 7.2593389025
11.139614152 2.0954222466 7.2535854276
11.1373719378 3.5226343732 7.2552392438
12.372715096 4.2393947615 7.2635425946
-2.4887357032 5.6563191972 7.2703042247
-0.0174955823 4.2462877777 7.2892592842
-0.0420458706 5.6626988046 7.3148681344
2.47419882 4.3105910231 7.339715067
2.4298974099 5.7274460958 7.4288970166
4.9617146721 4.3121330156 7.3432285571
5.004574076 5.725013266 7.4354016439
7.4503392423 4.2446186822 7.2837027387
7.4725068649 5.6633049579 7.3078300798
9.9137593635 4.2384349534 7.2575197279
9.9192736047 5.6646197188 7.2626663353
11.1435550754 6.3794653142 7.2630273359
-3.7134069542 7.7943633 7.2629520186
-1.2674716616 6.3742894349 7.2932823002
-1.2664337474 7.7982901883 7.293014967
1.1791471327 6.3728881877 7.36754781
1.177492004 7.8045826434 7.3670491112
6.2539789469 6.3722237026 7.3674298267
6.2508911216 7.8090418257 7.3661536015
8.7002518771 6.3789589778 7.282225885
8.6990661668 7.7999791533 7.2822421782
-4.9376737672 8.507917244 7.2627317571
-4.9438873818 9.931866481 7.2574914723
-2.4859160992 8.5111626064 7.2702760313
-2.4799072124 9.9327230558 7.263613112
-0.0377004489 8.5148969898 7.313913644
-0.0127293582 9.9348110238 7.2883350852
2.4310924558 8.4526412734 7.4312434062
2.4726140004 9.8580971917 7.3422801898
4.9989795967 8.4577231414 7.4328089889
4.9561079352 9.8733307596 7.3418939627
7.4699525081 8.5145953989 7.3068640847
7.4453355795 9.9304560745 7.283285316
-6.1788930546 10.6393404454 7.2592929569
-6.1848748609 12.0568404299 7.2519590687
-3.7115509975 10.645178608 7.2550578009
-3.7104421312 12.066011702 7.2530269932
-1.2433120991 10.6423210145 7.266021848
-1.2322298469 12.0585295445 7.2560677373
1.2472104064 10.6147662246 7.2893228133
1.2511528668 12.0322546205 7.2643037242
3.7065442163 10.5949748912 7.3278640227
3.7033046972 12.0074869787 7.2810731195
6.1931236329 10.608764825 7.2893217385
6.1839855899 12.029535362 7.264924082
3.7171530222 7.0883370646 8.1179130429
3.7171530222 7.0883370646 14.0979130429
3.3961390756 6.3624933719 14.9432502266