POSCAR-c3n4                             
  0.95999999999999996     
    13.8434242346000005   -0.1907404740000000    0.0000000000000000
    -6.9217121174000003   11.6951909939000007    0.0000000000000000
     0.0000000000000000    0.0000000000000000   14.9999999999999982
   C    N    Ge   C    O 
    24    32     1     1     1
Direct
  0.1032818046864676  0.2109737614295781  0.4251617112594985
  0.2897646196650214  0.4051201648742193  0.4380958395905239
  0.1018294432470199  0.3920028538426621  0.4251114360567598
  0.4484933160719180  0.0649635918036466  0.5233259107612156
  0.4643595943779459  0.4210227245298412  0.4122910121895274
  0.1139155186506571  0.0518659866722828  0.4618026493696448
  0.0832724673483725  0.7059164941278553  0.5075121216231864
  0.2815062357303546  0.8830544668935829  0.5301426445485973
  0.1133149398047451  0.8993753394768973  0.5292969959229481
  0.4468127746368822  0.5460557747488366  0.5282223224218683
  0.4459461294093217  0.8787393327332751  0.5128358561235657
  0.0704622347951869  0.5308761075310926  0.4921730046245472
  0.6215911180229199  0.2240483057991653  0.4770150228624956
  0.7764117592879174  0.3904538214390172  0.3817431048001794
  0.6161227722265679  0.3986669198703723  0.4400256857108289
  0.9356189820023033  0.0510278537026991  0.4772416308181135
  0.9421511466953447  0.3919618178279478  0.3759719566594413
  0.6297816676257497  0.0676594386828668  0.5317097133772393
  0.6151749637342476  0.7044514003274003  0.5784285644676714
  0.7937012901041030  0.9011185461756313  0.5627376397798969
  0.6105465201868157  0.8890525839292067  0.5597167038021738
  0.9311945140088369  0.5680640539004145  0.4192548971351400
  0.9683352139088868  0.9220231639858980  0.5771480250891869
  0.6259679763323476  0.5501041414738452  0.5206374394160136
  0.1664807195336948  0.3353128427555276  0.4246256415035887
  0.1647177826629616  0.1565774666243556  0.4193173222775144
  0.3359663741830232  0.0006109264658960  0.5492768911223394
  0.5267140394617229  0.3738799593122195  0.3846066926995348
  0.3542663169632121  0.3796499767288353  0.3848505686206352
  0.5082976385688198  0.1804469659036485  0.5035022363532207
  0.1557744294004806  0.9794396141400625  0.4614750803264869
  0.0087450348662585  0.0120827125430409  0.5109297048745205
  0.1600234014320208  0.8247935874555310  0.5326756776857522
  0.1111603737484756  0.6285236480831102  0.5433753964158043
  0.3296895073908672  0.4876911617615320  0.5098162932815455
  0.5042939331066378  0.8220091688777629  0.5208709839301235
  0.3289943552353378  0.8178015141059589  0.5065254714703968
  0.4950769059963704  0.6373874988973469  0.5865202294332690
  0.1267990853883134  0.4705602819062449  0.4967999622101402
  0.9821278881077831  0.4967343969634044  0.4316247096777417
  0.6685628476244219  0.3282538888124904  0.4242090950308182
  0.6898366829364022  0.1814631746285542  0.5043526993424834
  0.8206059270628430  0.9759935589021183  0.4913484415235914
  0.0187225712175234  0.3566204408024163  0.3619473435700513
  0.8299938967972693  0.3327098532134514  0.3537243028714414
  0.9850691228793664  0.1559144293792585  0.4350374028226582
  0.6728063511596787  0.0078760619982390  0.5742204828642770
  0.5074233895834297  0.0018168918938031  0.5142437550747800
  0.6702777687737296  0.8294755930953883  0.5821529453762437
  0.6811385739390161  0.6573491883975890  0.5613101024784442
  0.8264195814350543  0.5133535804491842  0.3819737019760723
  0.0326191769122133  0.8732884656218332  0.5946915239079686
  0.8627110643526166  0.8802562275854839  0.6157273843522972
  0.9964986423539699  0.6828568415057248  0.4487550702098204
  0.6691280774356727  0.4804936544680061  0.5077757419818312
  0.5125841985166915  0.5093613050114030  0.4832175694284615
  0.2727669437045748  0.5861592305919459  0.5818668648614889
  0.2863442793098017  0.5949134396444009  0.7980630949226892
  0.2179273969928133  0.5050663173412389  0.8309877269850503

  0.00000000E+00  0.00000000E+00  0.00000000E+00
  0.00000000E+00  0.00000000E+00  0.00000000E+00
  0.00000000E+00  0.00000000E+00  0.00000000E+00
  0.00000000E+00  0.00000000E+00  0.00000000E+00
  0.00000000E+00  0.00000000E+00  0.00000000E+00
  0.00000000E+00  0.00000000E+00  0.00000000E+00
  0.00000000E+00  0.00000000E+00  0.00000000E+00
  0.00000000E+00  0.00000000E+00  0.00000000E+00
  0.00000000E+00  0.00000000E+00  0.00000000E+00
  0.00000000E+00  0.00000000E+00  0.00000000E+00
  0.00000000E+00  0.00000000E+00  0.00000000E+00
  0.00000000E+00  0.00000000E+00  0.00000000E+00
  0.00000000E+00  0.00000000E+00  0.00000000E+00
  0.00000000E+00  0.00000000E+00  0.00000000E+00
  0.00000000E+00  0.00000000E+00  0.00000000E+00
  0.00000000E+00  0.00000000E+00  0.00000000E+00
  0.00000000E+00  0.00000000E+00  0.00000000E+00
  0.00000000E+00  0.00000000E+00  0.00000000E+00
  0.00000000E+00  0.00000000E+00  0.00000000E+00
  0.00000000E+00  0.00000000E+00  0.00000000E+00
  0.00000000E+00  0.00000000E+00  0.00000000E+00
  0.00000000E+00  0.00000000E+00  0.00000000E+00
  0.00000000E+00  0.00000000E+00  0.00000000E+00
  0.00000000E+00  0.00000000E+00  0.00000000E+00
  0.00000000E+00  0.00000000E+00  0.00000000E+00
  0.00000000E+00  0.00000000E+00  0.00000000E+00
  0.00000000E+00  0.00000000E+00  0.00000000E+00
  0.00000000E+00  0.00000000E+00  0.00000000E+00
  0.00000000E+00  0.00000000E+00  0.00000000E+00
  0.00000000E+00  0.00000000E+00  0.00000000E+00
  0.00000000E+00  0.00000000E+00  0.00000000E+00
  0.00000000E+00  0.00000000E+00  0.00000000E+00
  0.00000000E+00  0.00000000E+00  0.00000000E+00
  0.00000000E+00  0.00000000E+00  0.00000000E+00
  0.00000000E+00  0.00000000E+00  0.00000000E+00
  0.00000000E+00  0.00000000E+00  0.00000000E+00
  0.00000000E+00  0.00000000E+00  0.00000000E+00
  0.00000000E+00  0.00000000E+00  0.00000000E+00
  0.00000000E+00  0.00000000E+00  0.00000000E+00
  0.00000000E+00  0.00000000E+00  0.00000000E+00
  0.00000000E+00  0.00000000E+00  0.00000000E+00
  0.00000000E+00  0.00000000E+00  0.00000000E+00
  0.00000000E+00  0.00000000E+00  0.00000000E+00
  0.00000000E+00  0.00000000E+00  0.00000000E+00
  0.00000000E+00  0.00000000E+00  0.00000000E+00
  0.00000000E+00  0.00000000E+00  0.00000000E+00
  0.00000000E+00  0.00000000E+00  0.00000000E+00
  0.00000000E+00  0.00000000E+00  0.00000000E+00
  0.00000000E+00  0.00000000E+00  0.00000000E+00
  0.00000000E+00  0.00000000E+00  0.00000000E+00
  0.00000000E+00  0.00000000E+00  0.00000000E+00
  0.00000000E+00  0.00000000E+00  0.00000000E+00
  0.00000000E+00  0.00000000E+00  0.00000000E+00
  0.00000000E+00  0.00000000E+00  0.00000000E+00
  0.00000000E+00  0.00000000E+00  0.00000000E+00
  0.00000000E+00  0.00000000E+00  0.00000000E+00
  0.00000000E+00  0.00000000E+00  0.00000000E+00
  0.00000000E+00  0.00000000E+00  0.00000000E+00
  0.00000000E+00  0.00000000E+00  0.00000000E+00
