POSCAR-c3n4                             
  0.95999999999999996     
    13.8434242346000005   -0.1907404740000000    0.0000000000000000
    -6.9217121174000003   11.6951909939000007    0.0000000000000000
     0.0000000000000000    0.0000000000000000   14.9999999999999982
   C    N    Ge   C    O 
    24    32     1     1     1
Direct
  0.1032818046864646  0.2109737614295794  0.4251617112594957
  0.2897646196650205  0.4051201648742161  0.4380958395905231
  0.1018294432470232  0.3920028538426655  0.4251114360567584
  0.4484933160719189  0.0649635918036466  0.5233259107612163
  0.4643595943779481  0.4210227245298435  0.4122910121895247
  0.1139155186506564  0.0518659866722859  0.4618026493696454
  0.0832724673483706  0.7059164941278578  0.5075121216231869
  0.2815062357303547  0.8830544668935796  0.5301426445485947
  0.1133149398047439  0.8993753394768944  0.5292969959229445
  0.4468127746368847  0.5460557747488367  0.5282223224218670
  0.4459461294093194  0.8787393327332732  0.5128358561235634
  0.0704622347951896  0.5308761075310945  0.4921730046245463
  0.6215911180229228  0.2240483057991662  0.4770150228624940
  0.7764117592879139  0.3904538214390167  0.3817431048001778
  0.6161227722265670  0.3986669198703696  0.4400256857108266
  0.9356189820023039  0.0510278537026962  0.4772416308181112
  0.9421511466953455  0.3919618178279510  0.3759719566594381
  0.6297816676257476  0.0676594386828702  0.5317097133772374
  0.6151749637342464  0.7044514003274011  0.5784285644676701
  0.7937012901041040  0.9011185461756287  0.5627376397798990
  0.6105465201868131  0.8890525839292062  0.5597167038021755
  0.9311945140088390  0.5680640539004179  0.4192548971351424
  0.9683352139088891  0.9220231639859013  0.5771480250891903
  0.6259679763323444  0.5501041414738445  0.5206374394160130
  0.1664807195336958  0.3353128427555290  0.4246256415035919
  0.1647177826629638  0.1565774666243587  0.4193173222775164
  0.3359663741830213  0.0006109264658977  0.5492768911223413
  0.5267140394617237  0.3738799593122170  0.3846066926995377
  0.3542663169632135  0.3796499767288365  0.3848505686206327
  0.5082976385688175  0.1804469659036459  0.5035022363532189
  0.1557744294004803  0.9794396141400612  0.4614750803264885
  0.0087450348662611  0.0120827125430417  0.5109297048745207
  0.1600234014320199  0.8247935874555310  0.5326756776857552
  0.1111603737484755  0.6285236480831102  0.5433753964158042
  0.3296895073908697  0.4876911617615355  0.5098162932815439
  0.5042939331066386  0.8220091688777610  0.5208709839301228
  0.3289943552353385  0.8178015141059567  0.5065254714703988
  0.4950769059963699  0.6373874988973494  0.5865202294332712
  0.1267990853883156  0.4705602819062476  0.4967999622101416
  0.9821278881077834  0.4967343969634050  0.4316247096777446
  0.6685628476244192  0.3282538888124880  0.4242090950308197
  0.6898366829364033  0.1814631746285569  0.5043526993424847
  0.8206059270628429  0.9759935589021171  0.4913484415235885
  0.0187225712175231  0.3566204408024146  0.3619473435700543
  0.8299938967972661  0.3327098532134531  0.3537243028714432
  0.9850691228793683  0.1559144293792569  0.4350374028226602
  0.6728063511596794  0.0078760619982384  0.5742204828642796
  0.5074233895834276  0.0018168918938032  0.5142437550747806
  0.6702777687737292  0.8294755930953884  0.5821529453762443
  0.6811385739390167  0.6573491883975890  0.5613101024784432
  0.8264195814350540  0.5133535804491808  0.3819737019760724
  0.0326191769122108  0.8732884656218350  0.5946915239079721
  0.8627110643526152  0.8802562275854843  0.6157273843522981
 -0.0035013576460299  0.6828568415057212  0.4487550702098189
  0.6691280774356708  0.4804936544680070  0.5077757419818328
  0.5125841985166950  0.5093613050114040  0.4832175694284603
  0.2727669437045734  0.5861592305919471  0.5818668648614911
  0.2863442793098025  0.5949134396443995  0.7980630949226866
  0.2179273969928139  0.5050663173412401  0.8309877269850527

  0.00000000E+00  0.00000000E+00  0.00000000E+00
  0.00000000E+00  0.00000000E+00  0.00000000E+00
  0.00000000E+00  0.00000000E+00  0.00000000E+00
  0.00000000E+00  0.00000000E+00  0.00000000E+00
  0.00000000E+00  0.00000000E+00  0.00000000E+00
  0.00000000E+00  0.00000000E+00  0.00000000E+00
  0.00000000E+00  0.00000000E+00  0.00000000E+00
  0.00000000E+00  0.00000000E+00  0.00000000E+00
  0.00000000E+00  0.00000000E+00  0.00000000E+00
  0.00000000E+00  0.00000000E+00  0.00000000E+00
  0.00000000E+00  0.00000000E+00  0.00000000E+00
  0.00000000E+00  0.00000000E+00  0.00000000E+00
  0.00000000E+00  0.00000000E+00  0.00000000E+00
  0.00000000E+00  0.00000000E+00  0.00000000E+00
  0.00000000E+00  0.00000000E+00  0.00000000E+00
  0.00000000E+00  0.00000000E+00  0.00000000E+00
  0.00000000E+00  0.00000000E+00  0.00000000E+00
  0.00000000E+00  0.00000000E+00  0.00000000E+00
  0.00000000E+00  0.00000000E+00  0.00000000E+00
  0.00000000E+00  0.00000000E+00  0.00000000E+00
  0.00000000E+00  0.00000000E+00  0.00000000E+00
  0.00000000E+00  0.00000000E+00  0.00000000E+00
  0.00000000E+00  0.00000000E+00  0.00000000E+00
  0.00000000E+00  0.00000000E+00  0.00000000E+00
  0.00000000E+00  0.00000000E+00  0.00000000E+00
  0.00000000E+00  0.00000000E+00  0.00000000E+00
  0.00000000E+00  0.00000000E+00  0.00000000E+00
  0.00000000E+00  0.00000000E+00  0.00000000E+00
  0.00000000E+00  0.00000000E+00  0.00000000E+00
  0.00000000E+00  0.00000000E+00  0.00000000E+00
  0.00000000E+00  0.00000000E+00  0.00000000E+00
  0.00000000E+00  0.00000000E+00  0.00000000E+00
  0.00000000E+00  0.00000000E+00  0.00000000E+00
  0.00000000E+00  0.00000000E+00  0.00000000E+00
  0.00000000E+00  0.00000000E+00  0.00000000E+00
  0.00000000E+00  0.00000000E+00  0.00000000E+00
  0.00000000E+00  0.00000000E+00  0.00000000E+00
  0.00000000E+00  0.00000000E+00  0.00000000E+00
  0.00000000E+00  0.00000000E+00  0.00000000E+00
  0.00000000E+00  0.00000000E+00  0.00000000E+00
  0.00000000E+00  0.00000000E+00  0.00000000E+00
  0.00000000E+00  0.00000000E+00  0.00000000E+00
  0.00000000E+00  0.00000000E+00  0.00000000E+00
  0.00000000E+00  0.00000000E+00  0.00000000E+00
  0.00000000E+00  0.00000000E+00  0.00000000E+00
  0.00000000E+00  0.00000000E+00  0.00000000E+00
  0.00000000E+00  0.00000000E+00  0.00000000E+00
  0.00000000E+00  0.00000000E+00  0.00000000E+00
  0.00000000E+00  0.00000000E+00  0.00000000E+00
  0.00000000E+00  0.00000000E+00  0.00000000E+00
  0.00000000E+00  0.00000000E+00  0.00000000E+00
  0.00000000E+00  0.00000000E+00  0.00000000E+00
  0.00000000E+00  0.00000000E+00  0.00000000E+00
  0.00000000E+00  0.00000000E+00  0.00000000E+00
  0.00000000E+00  0.00000000E+00  0.00000000E+00
  0.00000000E+00  0.00000000E+00  0.00000000E+00
  0.00000000E+00  0.00000000E+00  0.00000000E+00
  0.00000000E+00  0.00000000E+00  0.00000000E+00
  0.00000000E+00  0.00000000E+00  0.00000000E+00
