POSCAR-clean                            
   1.0000000000000000     
    14.8611638413999998   -0.0032735932000000    0.0000000000000000
    -7.4305819205999999   12.7543763651000006    0.0000000000000000
     0.0000000000000000    0.0000000000000000   15.0000000000000000
   C    N    C    Cr   C    O 
    48     1    21     1     1     1
Direct
  0.0013159115807519  0.0009348694897931  0.4899469380116164
  0.0572202661455964  0.1126134635087573  0.4911418170544369
  0.1683717554304643  0.0016971664887867  0.4907899997789966
  0.2239557549221710  0.1134026433226718  0.4927627581357179
  0.3343430479438037  0.0013748047204914  0.4908596590952236
  0.3901231052482548  0.1129931475202244  0.4915305271667870
  0.4999680179487977  0.9990585976020492  0.4915241557050663
  0.5559521604264703  0.1108945182583952  0.4909639724866535
  0.6661810097932533  0.9983637674698521  0.4918994220886167
  0.7222097886596210  0.1099567061957214  0.4904494933437957
  0.8331075564562822  0.9988469935570812  0.4897076256860032
  0.8888001447820737  0.1103468582208172  0.4899122408838348
  0.0002789005604792  0.1666142801104858  0.4910435855502946
  0.0558966608870842  0.2779417723886037  0.4928964462526627
  0.1687326038001281  0.1692055069189015  0.4933370817053623
  0.2246673852836900  0.2811755849840671  0.4975970314444528
  0.3352075269981729  0.1696751627776141  0.4937224602267479
  0.3907648111033990  0.2813206864283545  0.4974821885582918
  0.5009764124561049  0.1672909019912404  0.4913278066558306
  0.5567835181003246  0.2788647854872701  0.4915254386038639
  0.6670142739693230  0.1659173100969941  0.4905316756556353
  0.7230419948129029  0.2774740908783008  0.4911723170058397
  0.8332347539398277  0.1658768561130459  0.4901324687415517
  0.8889760571819585  0.2772914479393513  0.4907347374370857
 -0.0000269448504793  0.3332499671706007  0.4918665868361791
  0.0551742316794613  0.4443109056179911  0.4925312800247806
  0.1664611569135364  0.3340604742262180  0.4967518864966307
  0.2209696126276562  0.4455580411103635  0.4991020544008217
  0.3370428011613126  0.3394050978376402  0.5034540408121645
  0.3913341402518906  0.4513664688422148  0.5145443957933118
  0.5020735110467783  0.3359051271284739  0.4936049067721663
  0.5591702111827657  0.4461543967010076  0.4951521250433181
  0.6678700675732745  0.3332095983281955  0.4924612383481125
  0.7246985774287135  0.4444771862421360  0.4946102116390604
  0.8341458973771847  0.3332596010548974  0.4912536479013499
  0.8903293475019451  0.4451206849792386  0.4920588815770418
  0.0014640075120488  0.5010793073365237  0.4919524499927075
  0.0572907086787708  0.6122438042971792  0.4918762404545032
  0.1654330985644212  0.5012370039945180  0.4951929237863603
  0.2205597831475530  0.6119996109545771  0.4953411447521002
  0.3300184022348280  0.5004864781646469  0.5069618183616206
  0.3851192975851161  0.6116064940333413  0.5066525625529559
  0.6697032479689068  0.4997360837542047  0.4930100164449235
  0.7263672570919316  0.6125732063761692  0.4907897173980839
  0.8355304951176459  0.5004231637761474  0.4936968992102406
  0.8916815994124372  0.6116057297496218  0.4932528675115831
  0.0024320530771068  0.6677342598565666  0.4916325979444408
  0.0569010923235148  0.7791536716234173  0.4906027545010741
  0.1666049849257523  0.6673847104738668  0.4925508267832218
  0.2222857101558152  0.7778416425017566  0.4917725386449479
  0.3310347644648365  0.6673863823562053  0.4988184293912450
  0.3888608570014948  0.7782926775406160  0.4962299960606684
  0.4953310719502952  0.6609576563930922  0.5135282948921788
  0.5534319437732418  0.7723118437254788  0.5017626957233001
  0.6691105326047698  0.6655222631456669  0.4877803629112839
  0.7220662454609362  0.7755984136980022  0.4891988615164490
  0.8369392873401510  0.6676621323251238  0.4926377010764924
  0.8907762199176964  0.7787502809434830  0.4899297477445811
  0.0018569164165337  0.8346377151680510  0.4898665918986802
  0.0573301851126937  0.9460710621522119  0.4898621702239131
  0.1675635850714297  0.8337276476407410  0.4906409783304707
  0.2236120230817261  0.9456470787694964  0.4906056284264547
  0.3330534776782975  0.8331420906563946  0.4927018459633618
  0.3888932872106066  0.9448731552216609  0.4914437482487209
  0.4993451777285404  0.8308608111534245  0.4967193422902997
  0.5552532595106371  0.9427975197281027  0.4928278499281986
  0.6653881755847185  0.8304947574633291  0.4947172366552505
  0.7212353385664019  0.9418662056913318  0.4918967590903607
  0.8341375035512406  0.8330098215451455  0.4885130338647174
  0.8897595879273545  0.9445147298038155  0.4892783210932204
  0.5424786983826972  0.5570530228022164  0.5444196088788150
  0.4903902809896655  0.5213407769743030  0.6635037654670818
  0.4628975184155513  0.5045588503599826  0.7374485690261864

  0.00000000E+00  0.00000000E+00  0.00000000E+00
  0.00000000E+00  0.00000000E+00  0.00000000E+00
  0.00000000E+00  0.00000000E+00  0.00000000E+00
  0.00000000E+00  0.00000000E+00  0.00000000E+00
  0.00000000E+00  0.00000000E+00  0.00000000E+00
  0.00000000E+00  0.00000000E+00  0.00000000E+00
  0.00000000E+00  0.00000000E+00  0.00000000E+00
  0.00000000E+00  0.00000000E+00  0.00000000E+00
  0.00000000E+00  0.00000000E+00  0.00000000E+00
  0.00000000E+00  0.00000000E+00  0.00000000E+00
  0.00000000E+00  0.00000000E+00  0.00000000E+00
  0.00000000E+00  0.00000000E+00  0.00000000E+00
  0.00000000E+00  0.00000000E+00  0.00000000E+00
  0.00000000E+00  0.00000000E+00  0.00000000E+00
  0.00000000E+00  0.00000000E+00  0.00000000E+00
  0.00000000E+00  0.00000000E+00  0.00000000E+00
  0.00000000E+00  0.00000000E+00  0.00000000E+00
  0.00000000E+00  0.00000000E+00  0.00000000E+00
  0.00000000E+00  0.00000000E+00  0.00000000E+00
  0.00000000E+00  0.00000000E+00  0.00000000E+00
  0.00000000E+00  0.00000000E+00  0.00000000E+00
  0.00000000E+00  0.00000000E+00  0.00000000E+00
  0.00000000E+00  0.00000000E+00  0.00000000E+00
  0.00000000E+00  0.00000000E+00  0.00000000E+00
  0.00000000E+00  0.00000000E+00  0.00000000E+00
  0.00000000E+00  0.00000000E+00  0.00000000E+00
  0.00000000E+00  0.00000000E+00  0.00000000E+00
  0.00000000E+00  0.00000000E+00  0.00000000E+00
  0.00000000E+00  0.00000000E+00  0.00000000E+00
  0.00000000E+00  0.00000000E+00  0.00000000E+00
  0.00000000E+00  0.00000000E+00  0.00000000E+00
  0.00000000E+00  0.00000000E+00  0.00000000E+00
  0.00000000E+00  0.00000000E+00  0.00000000E+00
  0.00000000E+00  0.00000000E+00  0.00000000E+00
  0.00000000E+00  0.00000000E+00  0.00000000E+00
  0.00000000E+00  0.00000000E+00  0.00000000E+00
  0.00000000E+00  0.00000000E+00  0.00000000E+00
  0.00000000E+00  0.00000000E+00  0.00000000E+00
  0.00000000E+00  0.00000000E+00  0.00000000E+00
  0.00000000E+00  0.00000000E+00  0.00000000E+00
  0.00000000E+00  0.00000000E+00  0.00000000E+00
  0.00000000E+00  0.00000000E+00  0.00000000E+00
  0.00000000E+00  0.00000000E+00  0.00000000E+00
  0.00000000E+00  0.00000000E+00  0.00000000E+00
  0.00000000E+00  0.00000000E+00  0.00000000E+00
  0.00000000E+00  0.00000000E+00  0.00000000E+00
  0.00000000E+00  0.00000000E+00  0.00000000E+00
  0.00000000E+00  0.00000000E+00  0.00000000E+00
  0.00000000E+00  0.00000000E+00  0.00000000E+00
  0.00000000E+00  0.00000000E+00  0.00000000E+00
  0.00000000E+00  0.00000000E+00  0.00000000E+00
  0.00000000E+00  0.00000000E+00  0.00000000E+00
  0.00000000E+00  0.00000000E+00  0.00000000E+00
  0.00000000E+00  0.00000000E+00  0.00000000E+00
  0.00000000E+00  0.00000000E+00  0.00000000E+00
  0.00000000E+00  0.00000000E+00  0.00000000E+00
  0.00000000E+00  0.00000000E+00  0.00000000E+00
  0.00000000E+00  0.00000000E+00  0.00000000E+00
  0.00000000E+00  0.00000000E+00  0.00000000E+00
  0.00000000E+00  0.00000000E+00  0.00000000E+00
  0.00000000E+00  0.00000000E+00  0.00000000E+00
  0.00000000E+00  0.00000000E+00  0.00000000E+00
  0.00000000E+00  0.00000000E+00  0.00000000E+00
  0.00000000E+00  0.00000000E+00  0.00000000E+00
  0.00000000E+00  0.00000000E+00  0.00000000E+00
  0.00000000E+00  0.00000000E+00  0.00000000E+00
  0.00000000E+00  0.00000000E+00  0.00000000E+00
  0.00000000E+00  0.00000000E+00  0.00000000E+00
  0.00000000E+00  0.00000000E+00  0.00000000E+00
  0.00000000E+00  0.00000000E+00  0.00000000E+00
  0.00000000E+00  0.00000000E+00  0.00000000E+00
  0.00000000E+00  0.00000000E+00  0.00000000E+00
  0.00000000E+00  0.00000000E+00  0.00000000E+00
