POSCAR-clean
1.0
14.8611638414 -0.0032735932 0.0
-7.4305819206 12.7543763651 0.0
0.0 0.0 15.0
C N C Cr C O
48 1 21 1 1 1
Cartesian
-7.4267104475 12.7529210161 7.3498502624
0.0032729978 1.4208656867 7.3509197808
2.484435404 0.0202238929 7.3483498758
2.4812824172 1.4430777759 7.3590590171
4.9531608151 0.0198631939 7.3513896768
4.9547234782 1.4433292233 7.361054644
-0.0018603747 12.7455322717 7.3508827295
7.4313204546 1.4152503647 7.3499523168
2.4775156573 12.7235288673 7.3591456561
9.9103918802 1.3909909177 7.3483445046
4.9546463374 12.723285392 7.3608867624
12.3837466147 1.3914331926 7.3513155904
13.6184979926 2.1098164181 7.3525225471
-1.2465673846 3.5316221909 7.3626968801
1.2390840739 2.143726893 7.3604881768
1.23497335 3.5702885064 7.386136857
3.7177470324 2.1686286859 7.3761104642
3.7176576127 3.5883848217 7.4219930006
6.1947675171 2.1407163353 7.361693807
6.1977072575 3.5650894863 7.3861443484
8.677078444 2.1085329321 7.3480102079
8.6834033104 3.5300583416 7.3555383024
11.146907391 2.1020867208 7.3494304092
11.1464181812 3.523455342 7.3514947077
12.379025958 4.236958114 7.3598509233
-2.4883708516 5.6589476396 7.3663741731
-0.0178409916 4.2512642595 7.3853331823
-0.0442189086 5.6709840607 7.4102875247
2.4724734027 4.3110276335 7.436128736
2.4256274567 5.7242094539 7.5284471733
4.9610077193 4.306278067 7.4375358459
5.0074108816 5.7198267499 7.5308363451
7.4503151233 4.2446553782 7.3800822735
7.4757964804 5.6602532891 7.4039977203
9.9178701517 4.2401840153 7.3537797817
9.9252375175 5.6672682163 7.3590621966
-3.7045111021 6.385105355 7.3594843856
-3.7014368415 7.8047328842 7.3599696463
-1.2778437683 6.3854225172 7.3892769743
-1.2817158786 7.8033075923 7.3903979368
1.1745178555 6.3697159434 7.4638227509
1.1657378573 7.8007159441 7.4636289423
6.2556176091 6.3665220174 7.4641419106
6.2597570157 7.8017470569 7.463766021
8.7045586311 6.374508311 7.3785563159
8.7124670818 7.7930731083 7.3786079021
-4.9265545132 8.5152710298 7.3596765361
-4.9468746689 9.9365008082 7.3539893371
-2.4886952679 8.5098678711 7.3672935372
-2.481878552 9.9202449159 7.3599062714
-0.0542592641 8.5130383413 7.4101667053
-0.0134416657 9.9259620988 7.3846867188
2.4171733508 8.4463739305 7.5279854212
2.4712228019 9.8572536381 7.4364271947
5.0113017997 8.4485549112 7.5300236373
4.9616046539 9.859891302 7.4380354055
7.4816456301 8.5074429837 7.4035326399
7.4509835794 9.9219579841 7.3796079565
-6.1768864532 10.6420530069 7.3554526975
-6.181490855 12.0618550368 7.3480429471
-3.7106940791 10.6345220873 7.3514228442
-3.7071239836 12.0602628451 7.3494777108
-1.2517861597 10.6280708661 7.3624622889
-1.249539703 12.0515199077 7.352608719
1.233782226 10.601434164 7.3855417081
1.2366703757 12.0271764052 7.3604456173
3.7164519173 10.5786643532 7.4227368311
3.7164387327 11.9979042672 7.3761703588
6.1992400428 10.6015568451 7.3858673917
6.196527107 12.0256079754 7.3615162824
3.7212249404 7.083925638 8.2049356237
3.7212249404 7.083925638 10.6849356237
3.4002109938 6.3580819453 11.5302728074