POSCAR-c3n4                             
   1.0000000000000000     
    13.8434242346000005   -0.1907404740000000    0.0000000000000000
    -6.9217121174000003   11.6951909939000007    0.0000000000000000
     0.0000000000000000    0.0000000000000000   15.0000000000000000
   C    N    Ge   C    O 
    24    32     1     1     1
Direct
  0.1053819885198735  0.2131573089544077  0.4436105739778498
  0.2874481605745345  0.3981589914471257  0.4507387022034450
  0.1033920589027062  0.3914630954062659  0.4448023229694300
  0.4471268178750947  0.0638206673087112  0.5233699768857960
  0.4525372201617088  0.4006158259826123  0.4303562566812573
  0.1117890455549215  0.0524177482534824  0.4665069385527616
  0.0960820001346079  0.7114529018373759  0.5012636269043540
  0.2840355595090784  0.8898583980275205  0.5188725064591253
  0.1091431768833289  0.8949382570267730  0.5159545268936370
  0.4475418338013171  0.5474925713403991  0.5190777000538915
  0.4455907540752690  0.8855659552455961  0.5064461036349286
  0.0866380249163043  0.5414816890987453  0.4977730644239955
  0.6160505635458051  0.2228461959781782  0.4905908011055331
  0.7798058725728509  0.3895513687096468  0.4175669825675072
  0.6104850299497286  0.3943426239934666  0.4534885557804742
  0.9393970122408319  0.0520553853355068  0.4786640312037633
  0.9399691695529526  0.3858327744036671  0.4118039779142961
  0.6228185447555106  0.0655587694057829  0.5297244352811745
  0.6128143432033895  0.7107002848647852  0.5490092523427847
  0.7895883556861847  0.8969469950880509  0.5408687135439507
  0.6094140076934877  0.8922476194040456  0.5390639217070188
  0.9378245925015989  0.5625457281222594  0.4380527838597885
  0.9541248722805378  0.9013426859161484  0.5525772135607383
  0.6213576661423943  0.5544178383015748  0.5079519884696495
  0.1666409604903905  0.3354479853955610  0.4417497774342962
  0.1643011343679461  0.1604929105691824  0.4384263358741052
  0.3360071846310433  0.0015146782249218  0.5398761527110594
  0.5120292478492914  0.3523462278631300  0.4099881321178032
  0.3446227425952983  0.3595612699675996  0.4077873408622565
  0.5054437649968477  0.1766097379297094  0.5108862385243853
  0.1585424094518473  0.9879085226655917  0.4646021196018282
  0.0019967446060036  0.0016129191864422  0.5008643490821569
  0.1643497373928611  0.8303601639164953  0.5178901863734211
  0.1336215076057741  0.6447695154350797  0.5348334711068148
  0.3339925723252577  0.4916205981701438  0.5079342015975001
  0.5026339246845311  0.8307583513169519  0.5074137482317624
  0.3331188444291300  0.8293384262892332  0.4969336588288158
  0.4985995908796070  0.6474344476132217  0.5618536757487220
  0.1423057748737477  0.4842901973063505  0.5014253712489847
  0.9874737133157581  0.4951996400447527  0.4538562449211199
  0.6674950983179357  0.3302678936086565  0.4475701323158958
  0.6796501587909631  0.1779518447467510  0.5131900070258766
  0.8270720328651535  0.9860094641971742  0.4858902929999616
  0.0099662607145206  0.3470876656885338  0.3967462287700556
  0.8300260358522706  0.3299223697732856  0.3968392455994163
  0.9928152887689734  0.1606823027694091  0.4529386292873099
  0.6686768668359804  0.0049694768847246  0.5571383679263064
  0.5047944164853178  0.0039129331063776  0.5156759239398951
  0.6679575270208673  0.8318558346668254  0.5519582026284127
  0.6751395828747633  0.6649222003007580  0.5309635829364225
  0.8316569411954191  0.5063969123721108  0.4130458257189815
  0.0155026245792840  0.8524105933099406  0.5664250762705976
  0.8489592771071202  0.8591682483254885  0.5839767579434678
  0.0036787241181386  0.6767895301578051  0.4521218079376865
  0.6676324062493677  0.4910867691129681  0.5018739749863528
  0.5056703495354355  0.5011195039131024  0.4849969481199494
  0.2959132269472420  0.6090445686941095  0.5660626885936466
  0.2972462837898533  0.6025402236295463  0.7627046867710519
  0.2242316540150355  0.5211069050411936  0.7954256588598909

  0.00000000E+00  0.00000000E+00  0.00000000E+00
  0.00000000E+00  0.00000000E+00  0.00000000E+00
  0.00000000E+00  0.00000000E+00  0.00000000E+00
  0.00000000E+00  0.00000000E+00  0.00000000E+00
  0.00000000E+00  0.00000000E+00  0.00000000E+00
  0.00000000E+00  0.00000000E+00  0.00000000E+00
  0.00000000E+00  0.00000000E+00  0.00000000E+00
  0.00000000E+00  0.00000000E+00  0.00000000E+00
  0.00000000E+00  0.00000000E+00  0.00000000E+00
  0.00000000E+00  0.00000000E+00  0.00000000E+00
  0.00000000E+00  0.00000000E+00  0.00000000E+00
  0.00000000E+00  0.00000000E+00  0.00000000E+00
  0.00000000E+00  0.00000000E+00  0.00000000E+00
  0.00000000E+00  0.00000000E+00  0.00000000E+00
  0.00000000E+00  0.00000000E+00  0.00000000E+00
  0.00000000E+00  0.00000000E+00  0.00000000E+00
  0.00000000E+00  0.00000000E+00  0.00000000E+00
  0.00000000E+00  0.00000000E+00  0.00000000E+00
  0.00000000E+00  0.00000000E+00  0.00000000E+00
  0.00000000E+00  0.00000000E+00  0.00000000E+00
  0.00000000E+00  0.00000000E+00  0.00000000E+00
  0.00000000E+00  0.00000000E+00  0.00000000E+00
  0.00000000E+00  0.00000000E+00  0.00000000E+00
  0.00000000E+00  0.00000000E+00  0.00000000E+00
  0.00000000E+00  0.00000000E+00  0.00000000E+00
  0.00000000E+00  0.00000000E+00  0.00000000E+00
  0.00000000E+00  0.00000000E+00  0.00000000E+00
  0.00000000E+00  0.00000000E+00  0.00000000E+00
  0.00000000E+00  0.00000000E+00  0.00000000E+00
  0.00000000E+00  0.00000000E+00  0.00000000E+00
  0.00000000E+00  0.00000000E+00  0.00000000E+00
  0.00000000E+00  0.00000000E+00  0.00000000E+00
  0.00000000E+00  0.00000000E+00  0.00000000E+00
  0.00000000E+00  0.00000000E+00  0.00000000E+00
  0.00000000E+00  0.00000000E+00  0.00000000E+00
  0.00000000E+00  0.00000000E+00  0.00000000E+00
  0.00000000E+00  0.00000000E+00  0.00000000E+00
  0.00000000E+00  0.00000000E+00  0.00000000E+00
  0.00000000E+00  0.00000000E+00  0.00000000E+00
  0.00000000E+00  0.00000000E+00  0.00000000E+00
  0.00000000E+00  0.00000000E+00  0.00000000E+00
  0.00000000E+00  0.00000000E+00  0.00000000E+00
  0.00000000E+00  0.00000000E+00  0.00000000E+00
  0.00000000E+00  0.00000000E+00  0.00000000E+00
  0.00000000E+00  0.00000000E+00  0.00000000E+00
  0.00000000E+00  0.00000000E+00  0.00000000E+00
  0.00000000E+00  0.00000000E+00  0.00000000E+00
  0.00000000E+00  0.00000000E+00  0.00000000E+00
  0.00000000E+00  0.00000000E+00  0.00000000E+00
  0.00000000E+00  0.00000000E+00  0.00000000E+00
  0.00000000E+00  0.00000000E+00  0.00000000E+00
  0.00000000E+00  0.00000000E+00  0.00000000E+00
  0.00000000E+00  0.00000000E+00  0.00000000E+00
  0.00000000E+00  0.00000000E+00  0.00000000E+00
  0.00000000E+00  0.00000000E+00  0.00000000E+00
  0.00000000E+00  0.00000000E+00  0.00000000E+00
  0.00000000E+00  0.00000000E+00  0.00000000E+00
  0.00000000E+00  0.00000000E+00  0.00000000E+00
  0.00000000E+00  0.00000000E+00  0.00000000E+00
