POSCAR-c3n4                             
   1.0000000000000000     
    13.8434242346000005   -0.1907404740000000    0.0000000000000000
    -6.9217121174000003   11.6951909939000007    0.0000000000000000
     0.0000000000000000    0.0000000000000000   15.0000000000000000
   C    N    Ge   C    O 
    24    32     1     1     1
Direct
  0.1053819885198746  0.2131573089544077  0.4436105739778522
  0.2874481605745345  0.3981589914471239  0.4507387022034431
  0.1033920589027078  0.3914630954062666  0.4448023229694266
  0.4471268178750972  0.0638206673087106  0.5233699768857961
  0.4525372201617123  0.4006158259826099  0.4303562566812548
  0.1117890455549227  0.0524177482534798  0.4665069385527607
  0.0960820001346066  0.7114529018373750  0.5012636269043518
  0.2840355595090819  0.8898583980275240  0.5188725064591224
  0.1091431768833257  0.8949382570267711  0.5159545268936353
  0.4475418338013138  0.5474925713404009  0.5190777000538949
  0.4455907540752690  0.8855659552455986  0.5064461036349278
  0.0866380249163061  0.5414816890987482  0.4977730644239943
  0.6160505635458053  0.2228461959781814  0.4905908011055312
  0.7798058725728484  0.3895513687096459  0.4175669825675081
  0.6104850299497283  0.3943426239934689  0.4534885557804765
  0.9393970122408338  0.0520553853355096  0.4786640312037642
  0.9399691695529494  0.3858327744036657  0.4118039779142985
  0.6228185447555137  0.0655587694057827  0.5297244352811715
  0.6128143432033871  0.7107002848647828  0.5490092523427872
  0.7895883556861880  0.8969469950880539  0.5408687135439537
  0.6094140076934859  0.8922476194040431  0.5390639217070214
  0.9378245925016016  0.5625457281222588  0.4380527838597919
  0.9541248722805363  0.9013426859161474  0.5525772135607360
  0.6213576661423954  0.5544178383015723  0.5079519884696484
  0.1666409604903879  0.3354479853955585  0.4417497774342975
  0.1643011343679455  0.1604929105691824  0.4384263358741026
  0.3360071846310457  0.0015146782249217  0.5398761527110566
  0.5120292478492879  0.3523462278631292  0.4099881321178029
  0.3446227425952976  0.3595612699676031  0.4077873408622551
  0.5054437649968485  0.1766097379297083  0.5108862385243823
  0.1585424094518468  0.9879085226655895  0.4646021196018250
  0.0019967446060070  0.0016129191864436  0.5008643490821556
  0.1643497373928644  0.8303601639164988  0.5178901863734231
  0.1336215076057752  0.6447695154350788  0.5348334711068142
  0.3339925723252548  0.4916205981701423  0.5079342015974975
  0.5026339246845294  0.8307583513169517  0.5074137482317591
  0.3331188444291335  0.8293384262892316  0.4969336588288176
  0.4985995908796051  0.6474344476132214  0.5618536757487222
  0.1423057748737468  0.4842901973063519  0.5014253712489869
  0.9874737133157602  0.4951996400447498  0.4538562449211191
  0.6674950983179340  0.3302678936086544  0.4475701323158923
  0.6796501587909600  0.1779518447467485  0.5131900070258767
  0.8270720328651516  0.9860094641971738  0.4858902929999631
  0.0099662607145221  0.3470876656885326  0.3967462287700557
  0.8300260358522703  0.3299223697732845  0.3968392455994132
  0.9928152887689711  0.1606823027694105  0.4529386292873114
  0.6686768668359820  0.0049694768847241  0.5571383679263074
  0.5047944164853206  0.0039129331063746  0.5156759239398985
  0.6679575270208681  0.8318558346668290  0.5519582026284119
  0.6751395828747621  0.6649222003007571  0.5309635829364212
  0.8316569411954172  0.5063969123721095  0.4130458257189827
  0.0155026245792839  0.8524105933099440  0.5664250762705960
  0.8489592771071192  0.8591682483254853  0.5839767579434656
  0.0036787241181403  0.6767895301578034  0.4521218079376899
  0.6676324062493673  0.4910867691129674  0.5018739749863554
  0.5056703495354327  0.5011195039131033  0.4849969481199522
  0.2959132269472446  0.6090445686941111  0.5660626885936452
  0.2972462837898524  0.6025402236295494  0.7627046867710536
  0.2242316540150326  0.5211069050411946  0.7954256588598940

  0.00000000E+00  0.00000000E+00  0.00000000E+00
  0.00000000E+00  0.00000000E+00  0.00000000E+00
  0.00000000E+00  0.00000000E+00  0.00000000E+00
  0.00000000E+00  0.00000000E+00  0.00000000E+00
  0.00000000E+00  0.00000000E+00  0.00000000E+00
  0.00000000E+00  0.00000000E+00  0.00000000E+00
  0.00000000E+00  0.00000000E+00  0.00000000E+00
  0.00000000E+00  0.00000000E+00  0.00000000E+00
  0.00000000E+00  0.00000000E+00  0.00000000E+00
  0.00000000E+00  0.00000000E+00  0.00000000E+00
  0.00000000E+00  0.00000000E+00  0.00000000E+00
  0.00000000E+00  0.00000000E+00  0.00000000E+00
  0.00000000E+00  0.00000000E+00  0.00000000E+00
  0.00000000E+00  0.00000000E+00  0.00000000E+00
  0.00000000E+00  0.00000000E+00  0.00000000E+00
  0.00000000E+00  0.00000000E+00  0.00000000E+00
  0.00000000E+00  0.00000000E+00  0.00000000E+00
  0.00000000E+00  0.00000000E+00  0.00000000E+00
  0.00000000E+00  0.00000000E+00  0.00000000E+00
  0.00000000E+00  0.00000000E+00  0.00000000E+00
  0.00000000E+00  0.00000000E+00  0.00000000E+00
  0.00000000E+00  0.00000000E+00  0.00000000E+00
  0.00000000E+00  0.00000000E+00  0.00000000E+00
  0.00000000E+00  0.00000000E+00  0.00000000E+00
  0.00000000E+00  0.00000000E+00  0.00000000E+00
  0.00000000E+00  0.00000000E+00  0.00000000E+00
  0.00000000E+00  0.00000000E+00  0.00000000E+00
  0.00000000E+00  0.00000000E+00  0.00000000E+00
  0.00000000E+00  0.00000000E+00  0.00000000E+00
  0.00000000E+00  0.00000000E+00  0.00000000E+00
  0.00000000E+00  0.00000000E+00  0.00000000E+00
  0.00000000E+00  0.00000000E+00  0.00000000E+00
  0.00000000E+00  0.00000000E+00  0.00000000E+00
  0.00000000E+00  0.00000000E+00  0.00000000E+00
  0.00000000E+00  0.00000000E+00  0.00000000E+00
  0.00000000E+00  0.00000000E+00  0.00000000E+00
  0.00000000E+00  0.00000000E+00  0.00000000E+00
  0.00000000E+00  0.00000000E+00  0.00000000E+00
  0.00000000E+00  0.00000000E+00  0.00000000E+00
  0.00000000E+00  0.00000000E+00  0.00000000E+00
  0.00000000E+00  0.00000000E+00  0.00000000E+00
  0.00000000E+00  0.00000000E+00  0.00000000E+00
  0.00000000E+00  0.00000000E+00  0.00000000E+00
  0.00000000E+00  0.00000000E+00  0.00000000E+00
  0.00000000E+00  0.00000000E+00  0.00000000E+00
  0.00000000E+00  0.00000000E+00  0.00000000E+00
  0.00000000E+00  0.00000000E+00  0.00000000E+00
  0.00000000E+00  0.00000000E+00  0.00000000E+00
  0.00000000E+00  0.00000000E+00  0.00000000E+00
  0.00000000E+00  0.00000000E+00  0.00000000E+00
  0.00000000E+00  0.00000000E+00  0.00000000E+00
  0.00000000E+00  0.00000000E+00  0.00000000E+00
  0.00000000E+00  0.00000000E+00  0.00000000E+00
  0.00000000E+00  0.00000000E+00  0.00000000E+00
  0.00000000E+00  0.00000000E+00  0.00000000E+00
  0.00000000E+00  0.00000000E+00  0.00000000E+00
  0.00000000E+00  0.00000000E+00  0.00000000E+00
  0.00000000E+00  0.00000000E+00  0.00000000E+00
  0.00000000E+00  0.00000000E+00  0.00000000E+00
