POSCAR-c3n4                             
   1.0200000000000000     
    13.8434242346000005   -0.1907404740000000    0.0000000000000000
    -6.9217121174000003   11.6951909939000007    0.0000000000000000
     0.0000000000000000    0.0000000000000000   15.0000000000000000
   C    N    Ge   C    O 
    24    32     1     1     1
Direct
  0.1060891157930495  0.2143075286608198  0.4560706196086840
  0.2868824721911881  0.3954738604544770  0.4573223338709528
  0.1044242874025565  0.3918445303462986  0.4541155861274501
  0.4469800586767881  0.0624219199000302  0.5192500084179007
  0.4485671112889207  0.3933188351514958  0.4402205151051593
  0.1108226393057084  0.0536071252437424  0.4706415442421268
  0.1008013464181510  0.7144715656560194  0.4964803898642031
  0.2852432790182829  0.8924190499384422  0.5116652813810326
  0.1074086325175808  0.8943270587899488  0.5098208761427437
  0.4484225452742261  0.5488329433676904  0.5139120479885615
  0.4450451095635186  0.8873986827336428  0.4998432114423508
  0.0943072936527781  0.5477767129342896  0.4969540031380725
  0.6143603948837935  0.2215589333376892  0.4944565580971255
  0.7820498609278403  0.3903490371125871  0.4334330045394429
  0.6089880342573677  0.3931206109636312  0.4595677396039242
  0.9412555651679533  0.0537782763119206  0.4828252243637998
  0.9401604476008752  0.3847950330602982  0.4284050675974335
  0.6195272279562312  0.0633275520240606  0.5247768512022573
  0.6118391438557017  0.7127312744291653  0.5335069044263444
  0.7880232157127015  0.8950314623283986  0.5299976880951359
  0.6078001487239033  0.8926005799750159  0.5273247193678394
  0.9407346685552397  0.5611074787052857  0.4461536980682393
  0.9491132651635470  0.8947315602029201  0.5407350666883741
  0.6191878318494196  0.5554984716451828  0.5013792316681707
  0.1667266897797743  0.3351701851509400  0.4524059860949630
  0.1633919163217273  0.1622021551333130  0.4495941847884119
  0.3371899983164017  0.0017120572549505  0.5327813639808823
  0.5071416109417292  0.3451326893702485  0.4229557927549404
  0.3412103032621610  0.3519228680731879  0.4203103585740943
  0.5050783250198755  0.1738723383586777  0.5112155699929110
  0.1588171239214180  0.9920881838880624  0.4671843359239025
  0.0000484917553991 -0.0004717532570182  0.4979626598867601
  0.1655802564583730  0.8329008576909180  0.5102085124273197
  0.1435242748308124  0.6527023682882981  0.5268672018982152
  0.3365010375002285  0.4945204157146606  0.5052772960469958
  0.5011804514331073  0.8331493834864125  0.4989801957776813
  0.3344381550067310  0.8335505505594222  0.4905432537011220
  0.5002920003146649  0.6519070124732543  0.5481507301489240
  0.1499798067514967  0.4920586278062425  0.5001080388156489
  0.9912476023234186  0.4967093665156771  0.4623694124355369
  0.6677291241673745  0.3315543955302940  0.4575962179376765
  0.6751478095177950  0.1749608381951219  0.5145589267804150
  0.8306219202029551  0.9910981808343949  0.4858684523678394
  0.0066685650921824  0.3433397559295266  0.4149512934975096
  0.8313241775976135  0.3304328081867931  0.4170901198625538
  0.9961802303055097  0.1633950123385962  0.4666316808640136
  0.6655143122010452  0.0027720813534418  0.5464480874316344
  0.5037049908067268  0.0036891083021248  0.5104750797707538
  0.6669072986355926  0.8323985890436747  0.5363500399661243
  0.6717594541549401  0.6667631785341731  0.5148337984800603
  0.8344962712692297  0.5045184066462121  0.4272475954084209
  0.0095589749092721  0.8460320373847152  0.5527273803088879
  0.8434032713115772  0.8505109792554635  0.5671380711934897
  0.0055344793484872  0.6743927333227828  0.4533993063724024
  0.6668017561523837  0.4952321032142014  0.4974609890022304
  0.5031281679990158  0.4979550818362122  0.4871326387487546
  0.3017932661469906  0.6118565549052817  0.5590148368934423
  0.2959406329536897  0.6001249631805076  0.7670765099225818
  0.2235248391259702  0.5203383138714298  0.7982259107689302

  0.00000000E+00  0.00000000E+00  0.00000000E+00
  0.00000000E+00  0.00000000E+00  0.00000000E+00
  0.00000000E+00  0.00000000E+00  0.00000000E+00
  0.00000000E+00  0.00000000E+00  0.00000000E+00
  0.00000000E+00  0.00000000E+00  0.00000000E+00
  0.00000000E+00  0.00000000E+00  0.00000000E+00
  0.00000000E+00  0.00000000E+00  0.00000000E+00
  0.00000000E+00  0.00000000E+00  0.00000000E+00
  0.00000000E+00  0.00000000E+00  0.00000000E+00
  0.00000000E+00  0.00000000E+00  0.00000000E+00
  0.00000000E+00  0.00000000E+00  0.00000000E+00
  0.00000000E+00  0.00000000E+00  0.00000000E+00
  0.00000000E+00  0.00000000E+00  0.00000000E+00
  0.00000000E+00  0.00000000E+00  0.00000000E+00
  0.00000000E+00  0.00000000E+00  0.00000000E+00
  0.00000000E+00  0.00000000E+00  0.00000000E+00
  0.00000000E+00  0.00000000E+00  0.00000000E+00
  0.00000000E+00  0.00000000E+00  0.00000000E+00
  0.00000000E+00  0.00000000E+00  0.00000000E+00
  0.00000000E+00  0.00000000E+00  0.00000000E+00
  0.00000000E+00  0.00000000E+00  0.00000000E+00
  0.00000000E+00  0.00000000E+00  0.00000000E+00
  0.00000000E+00  0.00000000E+00  0.00000000E+00
  0.00000000E+00  0.00000000E+00  0.00000000E+00
  0.00000000E+00  0.00000000E+00  0.00000000E+00
  0.00000000E+00  0.00000000E+00  0.00000000E+00
  0.00000000E+00  0.00000000E+00  0.00000000E+00
  0.00000000E+00  0.00000000E+00  0.00000000E+00
  0.00000000E+00  0.00000000E+00  0.00000000E+00
  0.00000000E+00  0.00000000E+00  0.00000000E+00
  0.00000000E+00  0.00000000E+00  0.00000000E+00
  0.00000000E+00  0.00000000E+00  0.00000000E+00
  0.00000000E+00  0.00000000E+00  0.00000000E+00
  0.00000000E+00  0.00000000E+00  0.00000000E+00
  0.00000000E+00  0.00000000E+00  0.00000000E+00
  0.00000000E+00  0.00000000E+00  0.00000000E+00
  0.00000000E+00  0.00000000E+00  0.00000000E+00
  0.00000000E+00  0.00000000E+00  0.00000000E+00
  0.00000000E+00  0.00000000E+00  0.00000000E+00
  0.00000000E+00  0.00000000E+00  0.00000000E+00
  0.00000000E+00  0.00000000E+00  0.00000000E+00
  0.00000000E+00  0.00000000E+00  0.00000000E+00
  0.00000000E+00  0.00000000E+00  0.00000000E+00
  0.00000000E+00  0.00000000E+00  0.00000000E+00
  0.00000000E+00  0.00000000E+00  0.00000000E+00
  0.00000000E+00  0.00000000E+00  0.00000000E+00
  0.00000000E+00  0.00000000E+00  0.00000000E+00
  0.00000000E+00  0.00000000E+00  0.00000000E+00
  0.00000000E+00  0.00000000E+00  0.00000000E+00
  0.00000000E+00  0.00000000E+00  0.00000000E+00
  0.00000000E+00  0.00000000E+00  0.00000000E+00
  0.00000000E+00  0.00000000E+00  0.00000000E+00
  0.00000000E+00  0.00000000E+00  0.00000000E+00
  0.00000000E+00  0.00000000E+00  0.00000000E+00
  0.00000000E+00  0.00000000E+00  0.00000000E+00
  0.00000000E+00  0.00000000E+00  0.00000000E+00
  0.00000000E+00  0.00000000E+00  0.00000000E+00
  0.00000000E+00  0.00000000E+00  0.00000000E+00
  0.00000000E+00  0.00000000E+00  0.00000000E+00
