POSCAR-clean                            
   1.00000000000000     
    14.8615528463354600    0.0031812625859325    0.0000000000000000
    -7.4307764231177851   12.7513250114940249    0.0000000000000000
     0.0000000000000000    0.0000000000000000   15.0000000000000000
   C    N    C    Cr
    46     1    23     1
Direct
 -0.0000337624512730  0.9993704920318057  0.4976044372423401
  0.0557955389519964  0.1110993361295033  0.4977354929406165
  0.1677644243274560  0.0016363978767224  0.4975246559185142
  0.2235623278380003  0.1132906834383099  0.4982679335887200
  0.3339568407176555  0.0016442448851200  0.4976737554637312
  0.3899112670397175  0.1132662942393327  0.4983571050097474
  0.4999561254233737  0.9998987004459113  0.4977379305698719
  0.5557005495058142  0.1115140812920062  0.4976440317838348
  0.6657681872524194  0.9977284591181167  0.4982644316039542
  0.7216093276472968  0.1093377279966069  0.4975275569623514
  0.8323828575540663  0.9976888898459668  0.4983472564346463
  0.8880499149905163  0.1092302881651613  0.4976723915845136
  0.9992340416358028  0.1655551614538278  0.4977544681120150
  0.0546592495028042  0.2770670647330015  0.4984237286650339
  0.1675062421846665  0.1680360385097795  0.4984880168795849
  0.2232968831107854  0.2798002913071608  0.5001840694617683
  0.3351454792556617  0.1700536364011861  0.4993617935850590
  0.3908891324077025  0.2814608963740264  0.5023502062511851
  0.5009290195729572  0.1683361924113201  0.4984251872465498
  0.5570756646137233  0.2803339194441370  0.5001345582762325
  0.6667012477601807  0.1657859622443626  0.4975275466704125
  0.7225151448677566  0.2770538595622861  0.4980234521710835
  0.8327168115610259  0.1650634486074959  0.4975586937355045
  0.8884959992923804  0.2765688174624476  0.4976581577785524
  0.9993402620702680  0.3326928928714804  0.4981964445420268
  0.0548581483750719  0.4446006123792965  0.4986496323705558
  0.1656327870582310  0.3330653585716382  0.5001603966313151
  0.2196098764043041  0.4440440040550420  0.5021802026640482
  0.3356481296924896  0.3378344554310337  0.5030954153375912
  0.3887523218727298  0.4489009348044281  0.5087702658936551
  0.5028486653821507  0.3385493801277266  0.5035430917658312
  0.5608938586504919  0.4497241366887615  0.5096505698630749
  0.6680047270418024  0.3334735723494192  0.4997244954702272
  0.7252258447006952  0.4447650152201778  0.5013816661075667
  0.8334543861480576  0.3325200230316877  0.4978391756358300
  0.8894806322863196  0.4438068778483878  0.4981977317084000
  0.9998414089946627  0.5006022110224192  0.4981756078657457
  0.0553098078715615  0.6119409962545226  0.4982815149928820
  0.1648146790298747  0.4999888489143158  0.5004324482774433
  0.2199259757540124  0.6112511822187628  0.5004305680235799
  0.3296201256558184  0.4994594981976149  0.5055685379275021
  0.3854940398800167  0.6117522860652724  0.5054688882507482
  0.6705830907031874  0.4996605581545114  0.5053148006615603
  0.7271480619266584  0.6115993585146973  0.5053118295878598
  0.8363340248465266  0.5006978982955879  0.4996633664695986
  0.8921758470711769  0.6118460888602798  0.4998093954913440
  0.0012009440044093  0.6671725765479753  0.4983840121673891
  0.0560732332381382  0.7777800150989987  0.4979272219100692
  0.1656581024178035  0.6675401072466444  0.4987348591848869
  0.2227057816407583  0.7790064861117064  0.4982329664042538
  0.3307712020583808  0.6671670025247480  0.5020932473031722
  0.3880562074448893  0.7780506657228923  0.5001148052517903
  0.4951741477321088  0.6623001634284506  0.5086750515073842
  0.5532662281692898  0.7731828874551943  0.5031641792385079
  0.6674207745871711  0.6615984976772088  0.5096121151585788
  0.7199800019982617  0.7725719497115041  0.5035830834443860
  0.8372763990720820  0.6674078807040337  0.5014294247680442
  0.8901250500085743  0.7782034020967797  0.4996972244871022
  0.0009858008165747  0.8332502103819523  0.4980204310379771
  0.0567178585234415  0.9449197711591820  0.4975041347680666
  0.1667954340221059  0.8337415269218313  0.4976868907629846
  0.2225390261428317  0.9456278473327278  0.4975554973057615
  0.3331407637235601  0.8342431742840613  0.4984135021429311
  0.3890892535571971  0.9456441768750901  0.4977492116903997
  0.4988972865821054  0.8312647715920551  0.5001851646465999
  0.5548627038977245  0.9430166623410504  0.4984806456654837
  0.6650044179391666  0.8295371392929818  0.5024490886134616
  0.7206619907440577  0.9408966987427436  0.4993811097035486
  0.8325305835487268  0.8309761492782580  0.5000755398327408
  0.8884102902740992  0.9429102205711329  0.4983739435631093
  0.5262914629949037  0.5556128451777007  0.5550437249804312
 
  0.00000000E+00  0.00000000E+00  0.00000000E+00
  0.00000000E+00  0.00000000E+00  0.00000000E+00
  0.00000000E+00  0.00000000E+00  0.00000000E+00
  0.00000000E+00  0.00000000E+00  0.00000000E+00
  0.00000000E+00  0.00000000E+00  0.00000000E+00
  0.00000000E+00  0.00000000E+00  0.00000000E+00
  0.00000000E+00  0.00000000E+00  0.00000000E+00
  0.00000000E+00  0.00000000E+00  0.00000000E+00
  0.00000000E+00  0.00000000E+00  0.00000000E+00
  0.00000000E+00  0.00000000E+00  0.00000000E+00
  0.00000000E+00  0.00000000E+00  0.00000000E+00
  0.00000000E+00  0.00000000E+00  0.00000000E+00
  0.00000000E+00  0.00000000E+00  0.00000000E+00
  0.00000000E+00  0.00000000E+00  0.00000000E+00
  0.00000000E+00  0.00000000E+00  0.00000000E+00
  0.00000000E+00  0.00000000E+00  0.00000000E+00
  0.00000000E+00  0.00000000E+00  0.00000000E+00
  0.00000000E+00  0.00000000E+00  0.00000000E+00
  0.00000000E+00  0.00000000E+00  0.00000000E+00
  0.00000000E+00  0.00000000E+00  0.00000000E+00
  0.00000000E+00  0.00000000E+00  0.00000000E+00
  0.00000000E+00  0.00000000E+00  0.00000000E+00
  0.00000000E+00  0.00000000E+00  0.00000000E+00
  0.00000000E+00  0.00000000E+00  0.00000000E+00
  0.00000000E+00  0.00000000E+00  0.00000000E+00
  0.00000000E+00  0.00000000E+00  0.00000000E+00
  0.00000000E+00  0.00000000E+00  0.00000000E+00
  0.00000000E+00  0.00000000E+00  0.00000000E+00
  0.00000000E+00  0.00000000E+00  0.00000000E+00
  0.00000000E+00  0.00000000E+00  0.00000000E+00
  0.00000000E+00  0.00000000E+00  0.00000000E+00
  0.00000000E+00  0.00000000E+00  0.00000000E+00
  0.00000000E+00  0.00000000E+00  0.00000000E+00
  0.00000000E+00  0.00000000E+00  0.00000000E+00
  0.00000000E+00  0.00000000E+00  0.00000000E+00
  0.00000000E+00  0.00000000E+00  0.00000000E+00
  0.00000000E+00  0.00000000E+00  0.00000000E+00
  0.00000000E+00  0.00000000E+00  0.00000000E+00
  0.00000000E+00  0.00000000E+00  0.00000000E+00
  0.00000000E+00  0.00000000E+00  0.00000000E+00
  0.00000000E+00  0.00000000E+00  0.00000000E+00
  0.00000000E+00  0.00000000E+00  0.00000000E+00
  0.00000000E+00  0.00000000E+00  0.00000000E+00
  0.00000000E+00  0.00000000E+00  0.00000000E+00
  0.00000000E+00  0.00000000E+00  0.00000000E+00
  0.00000000E+00  0.00000000E+00  0.00000000E+00
  0.00000000E+00  0.00000000E+00  0.00000000E+00
  0.00000000E+00  0.00000000E+00  0.00000000E+00
  0.00000000E+00  0.00000000E+00  0.00000000E+00
  0.00000000E+00  0.00000000E+00  0.00000000E+00
  0.00000000E+00  0.00000000E+00  0.00000000E+00
  0.00000000E+00  0.00000000E+00  0.00000000E+00
  0.00000000E+00  0.00000000E+00  0.00000000E+00
  0.00000000E+00  0.00000000E+00  0.00000000E+00
  0.00000000E+00  0.00000000E+00  0.00000000E+00
  0.00000000E+00  0.00000000E+00  0.00000000E+00
  0.00000000E+00  0.00000000E+00  0.00000000E+00
  0.00000000E+00  0.00000000E+00  0.00000000E+00
  0.00000000E+00  0.00000000E+00  0.00000000E+00
  0.00000000E+00  0.00000000E+00  0.00000000E+00
  0.00000000E+00  0.00000000E+00  0.00000000E+00
  0.00000000E+00  0.00000000E+00  0.00000000E+00
  0.00000000E+00  0.00000000E+00  0.00000000E+00
  0.00000000E+00  0.00000000E+00  0.00000000E+00
  0.00000000E+00  0.00000000E+00  0.00000000E+00
  0.00000000E+00  0.00000000E+00  0.00000000E+00
  0.00000000E+00  0.00000000E+00  0.00000000E+00
  0.00000000E+00  0.00000000E+00  0.00000000E+00
  0.00000000E+00  0.00000000E+00  0.00000000E+00
  0.00000000E+00  0.00000000E+00  0.00000000E+00
  0.00000000E+00  0.00000000E+00  0.00000000E+00
