POSCAR-clean
1.0
14.8611638414 -0.0032735932 0.0
-7.4305819206 12.7543763651 0.0
0.0 0.0 15.0
C N C Cr C O
48 1 21 1 1 1
Cartesian
-7.4267104475 12.7529210161 7.2539598514
0.0032729978 1.4208656867 7.2550293698
2.484435404 0.0202238929 7.2524594648
2.4812824172 1.4430777759 7.2631686061
4.9531608151 0.0198631939 7.2554992658
4.9547234782 1.4433292233 7.265164233
-0.0018603747 12.7455322717 7.2549923185
7.4313204546 1.4152503647 7.2540619058
2.4775156573 12.7235288673 7.2632552451
9.9103918802 1.3909909177 7.2524540936
4.9546463374 12.723285392 7.2649963514
12.3837466147 1.3914331926 7.2554251794
13.6184979926 2.1098164181 7.2566321361
-1.2465673846 3.5316221909 7.2668064691
1.2390840739 2.143726893 7.2645977658
1.23497335 3.5702885064 7.290246446
3.7177470324 2.1686286859 7.2802200532
3.7176576127 3.5883848217 7.3261025896
6.1947675171 2.1407163353 7.265803396
6.1977072575 3.5650894863 7.2902539374
8.677078444 2.1085329321 7.2521197969
8.6834033104 3.5300583416 7.2596478914
11.146907391 2.1020867208 7.2535399982
11.1464181812 3.523455342 7.2556042967
12.379025958 4.236958114 7.2639605123
-2.4883708516 5.6589476396 7.2704837621
-0.0178409916 4.2512642595 7.2894427713
-0.0442189086 5.6709840607 7.3143971137
2.4724734027 4.3110276335 7.340238325
2.4256274567 5.7242094539 7.4325567623
4.9610077193 4.306278067 7.3416454349
5.0074108816 5.7198267499 7.4349459341
7.4503151233 4.2446553782 7.2841918625
7.4757964804 5.6602532891 7.3081073093
9.9178701517 4.2401840153 7.2578893707
9.9252375175 5.6672682163 7.2631717856
-3.7045111021 6.385105355 7.2635939746
-3.7014368415 7.8047328842 7.2640792353
-1.2778437683 6.3854225172 7.2933865633
-1.2817158786 7.8033075923 7.2945075258
1.1745178555 6.3697159434 7.3679323399
1.1657378573 7.8007159441 7.3677385313
6.2556176091 6.3665220174 7.3682514996
6.2597570157 7.8017470569 7.36787561
8.7045586311 6.374508311 7.2826659049
8.7124670818 7.7930731083 7.2827174911
-4.9265545132 8.5152710298 7.2637861251
-4.9468746689 9.9365008082 7.2580989261
-2.4886952679 8.5098678711 7.2714031262
-2.481878552 9.9202449159 7.2640158604
-0.0542592641 8.5130383413 7.3142762943
-0.0134416657 9.9259620988 7.2887963078
2.4171733508 8.4463739305 7.4320950102
2.4712228019 9.8572536381 7.3405367837
5.0113017997 8.4485549112 7.4341332263
4.9616046539 9.859891302 7.3421449945
7.4816456301 8.5074429837 7.3076422289
7.4509835794 9.9219579841 7.2837175455
-6.1768864532 10.6420530069 7.2595622865
-6.181490855 12.0618550368 7.2521525361
-3.7106940791 10.6345220873 7.2555324332
-3.7071239836 12.0602628451 7.2535872998
-1.2517861597 10.6280708661 7.2665718779
-1.249539703 12.0515199077 7.256718308
1.233782226 10.601434164 7.2896512971
1.2366703757 12.0271764052 7.2645552063
3.7164519173 10.5786643532 7.3268464201
3.7164387327 11.9979042672 7.2802799478
6.1992400428 10.6015568451 7.2899769807
6.196527107 12.0256079754 7.2656258714
3.7212249404 7.083925638 8.1090452127
3.7212249404 7.083925638 14.0890452127
3.4002109938 6.3580819453 14.9343823964