POSCAR-clean                            
   1.00000000000000     
    14.8578513510237276   -0.0013713678020068    0.0000000000000000
    -7.4289256754619331   12.7568500170382393    0.0000000000000000
     0.0000000000000000    0.0000000000000000   15.0000000000000000
   C    N    C    Cr
    59     1    10     1
Direct
  0.0005821884048869  0.9993592606875309  0.4976724243196975
  0.0561116342771238  0.1106979129161776  0.4977249338800432
  0.1668933853424858  0.0014921969139099  0.4975974886269412
  0.2225394665466403  0.1126339215267078  0.4982839517650492
  0.3337004868558477  0.0020845375332482  0.4977233710755932
  0.3898395013840770  0.1133006335966751  0.4983813663838818
  0.4998737677999135  0.9998190644164858  0.4977323226768491
  0.5557299230930590  0.1113270222851772  0.4976598967094979
  0.6659422370510810  0.9977636545711260  0.4982571994946090
  0.7216342272695992  0.1091582692942308  0.4975366568266909
  0.8329870384272416  0.9978865811622331  0.4983550813942476
  0.8880779052657344  0.1091072404349911  0.4977309783639048
  0.9989914271945053  0.1648491215491170  0.4978103821633836
  0.0544268343091848  0.2764088384143783  0.4984838876926147
  0.1675090810737072  0.1683213003369197  0.4983796904488606
  0.2230503780245922  0.2795768582357195  0.5000550597413966
  0.3347217682129788  0.1695960730946429  0.4994252123708095
  0.3904883410563355  0.2810510795232816  0.5025235444802886
  0.5008185254460165  0.1680900014143306  0.4984254700315143
  0.5567854175574941  0.2796908095842658  0.5000359905480022
  0.6666293748255039  0.1654930908000755  0.4975207785058371
  0.7225694746690916  0.2767543285342373  0.4980265118740029
  0.8326322259263983  0.1648647304805171  0.4976157080302264
  0.8883221382758445  0.2762664699504357  0.4977578330763245
  0.9991168847182076  0.3320700599971306  0.4983138687587035
  0.0545267357066124  0.4438774979583615  0.4987742535496594
  0.1653078853400635  0.3327980742124270  0.5000234323110041
  0.2191861358240745  0.4438191785240973  0.5017389835043842
  0.3353976175520483  0.3377957790242572  0.5033795950235758
  0.3876873447166780  0.4485064874801939  0.5094341585923512
  0.5025872913243336  0.3377570386779815  0.5034694477592649
  0.5612625076088321  0.4486595421665637  0.5096403854067906
  0.6676869310214282  0.3329425274316589  0.4996682437779194
  0.7248978420747714  0.4439976508849368  0.5012907293032304
  0.8333291919925223  0.3322466020477505  0.4979098406599929
  0.8895281156575920  0.4439573324578491  0.4982445075704797
  0.0000289112556947  0.5000642049663271  0.4982587962310658
  0.0557417055900926  0.6116929046913355  0.4982638507574692
  0.1645322354029868  0.4998178472770999  0.5003521750994688
  0.2202721628522576  0.6113555119918155  0.5003285604255574
  0.3290248079460238  0.4992537777221556  0.5051721343292424
  0.3852566884403933  0.6117950834400807  0.5051753950923207
  0.6706373920844152  0.4994899278994916  0.5052182875490810
  0.7272045164171170  0.6122779835026548  0.5051843222251252
  0.8354469464255726  0.4999518732623022  0.4995852021255207
  0.8912950383433099  0.6116067050557841  0.4995593299784059
  0.0011304318652089  0.6678989581358282  0.4982397920483826
  0.0569041346148037  0.7799513789980432  0.4978971770734112
  0.1661257694638333  0.6673054004603857  0.4987782440046660
  0.2223904634409150  0.7790541638375008  0.4983116177464572
  0.3309229421467342  0.6672703648146430  0.5016977506827275
  0.3881596432093145  0.7783397205687936  0.5000163994030861
  0.4946950195605410  0.6625072039481006  0.5094718263420105
  0.5532527624528802  0.7733052488331100  0.5033699718915945
  0.6684121263616443  0.6625278856341299  0.5098283055175274
  0.7207408154481441  0.7734436730726062  0.5034694503929984
  0.8372055423919136  0.6678248693672248  0.5011899237472828
  0.8910391814746429  0.7792255584514395  0.4996719916532109
  0.0019026734065900  0.8354741330718313  0.4980923427946268
  0.0566756358188251  0.9456367301501920  0.4975744155160379
  0.1676352589791499  0.8347874713054846  0.4977402405880376
  0.2223076894095075  0.9459941575538967  0.4976139935399304
  0.3332824925609318  0.8345677393735019  0.4984944732142327
  0.3888407575472452  0.9456861966528207  0.4978191362914672
  0.4990165897586716  0.8314946424626984  0.5000655032877382
  0.5549297652992090  0.9430216567435534  0.4983876306972976
  0.6651640350152592  0.8298368600318811  0.5025018243455059
  0.7210349268551723  0.9409645886408948  0.4993993261222609
  0.8325410665348791  0.8313206322257978  0.5000250432286711
  0.8892201313878021  0.9428872195296222  0.4983870009220177
  0.5278786695287171  0.5555668603369031  0.5549153574512177
 
  0.00000000E+00  0.00000000E+00  0.00000000E+00
  0.00000000E+00  0.00000000E+00  0.00000000E+00
  0.00000000E+00  0.00000000E+00  0.00000000E+00
  0.00000000E+00  0.00000000E+00  0.00000000E+00
  0.00000000E+00  0.00000000E+00  0.00000000E+00
  0.00000000E+00  0.00000000E+00  0.00000000E+00
  0.00000000E+00  0.00000000E+00  0.00000000E+00
  0.00000000E+00  0.00000000E+00  0.00000000E+00
  0.00000000E+00  0.00000000E+00  0.00000000E+00
  0.00000000E+00  0.00000000E+00  0.00000000E+00
  0.00000000E+00  0.00000000E+00  0.00000000E+00
  0.00000000E+00  0.00000000E+00  0.00000000E+00
  0.00000000E+00  0.00000000E+00  0.00000000E+00
  0.00000000E+00  0.00000000E+00  0.00000000E+00
  0.00000000E+00  0.00000000E+00  0.00000000E+00
  0.00000000E+00  0.00000000E+00  0.00000000E+00
  0.00000000E+00  0.00000000E+00  0.00000000E+00
  0.00000000E+00  0.00000000E+00  0.00000000E+00
  0.00000000E+00  0.00000000E+00  0.00000000E+00
  0.00000000E+00  0.00000000E+00  0.00000000E+00
  0.00000000E+00  0.00000000E+00  0.00000000E+00
  0.00000000E+00  0.00000000E+00  0.00000000E+00
  0.00000000E+00  0.00000000E+00  0.00000000E+00
  0.00000000E+00  0.00000000E+00  0.00000000E+00
  0.00000000E+00  0.00000000E+00  0.00000000E+00
  0.00000000E+00  0.00000000E+00  0.00000000E+00
  0.00000000E+00  0.00000000E+00  0.00000000E+00
  0.00000000E+00  0.00000000E+00  0.00000000E+00
  0.00000000E+00  0.00000000E+00  0.00000000E+00
  0.00000000E+00  0.00000000E+00  0.00000000E+00
  0.00000000E+00  0.00000000E+00  0.00000000E+00
  0.00000000E+00  0.00000000E+00  0.00000000E+00
  0.00000000E+00  0.00000000E+00  0.00000000E+00
  0.00000000E+00  0.00000000E+00  0.00000000E+00
  0.00000000E+00  0.00000000E+00  0.00000000E+00
  0.00000000E+00  0.00000000E+00  0.00000000E+00
  0.00000000E+00  0.00000000E+00  0.00000000E+00
  0.00000000E+00  0.00000000E+00  0.00000000E+00
  0.00000000E+00  0.00000000E+00  0.00000000E+00
  0.00000000E+00  0.00000000E+00  0.00000000E+00
  0.00000000E+00  0.00000000E+00  0.00000000E+00
  0.00000000E+00  0.00000000E+00  0.00000000E+00
  0.00000000E+00  0.00000000E+00  0.00000000E+00
  0.00000000E+00  0.00000000E+00  0.00000000E+00
  0.00000000E+00  0.00000000E+00  0.00000000E+00
  0.00000000E+00  0.00000000E+00  0.00000000E+00
  0.00000000E+00  0.00000000E+00  0.00000000E+00
  0.00000000E+00  0.00000000E+00  0.00000000E+00
  0.00000000E+00  0.00000000E+00  0.00000000E+00
  0.00000000E+00  0.00000000E+00  0.00000000E+00
  0.00000000E+00  0.00000000E+00  0.00000000E+00
  0.00000000E+00  0.00000000E+00  0.00000000E+00
  0.00000000E+00  0.00000000E+00  0.00000000E+00
  0.00000000E+00  0.00000000E+00  0.00000000E+00
  0.00000000E+00  0.00000000E+00  0.00000000E+00
  0.00000000E+00  0.00000000E+00  0.00000000E+00
  0.00000000E+00  0.00000000E+00  0.00000000E+00
  0.00000000E+00  0.00000000E+00  0.00000000E+00
  0.00000000E+00  0.00000000E+00  0.00000000E+00
  0.00000000E+00  0.00000000E+00  0.00000000E+00
  0.00000000E+00  0.00000000E+00  0.00000000E+00
  0.00000000E+00  0.00000000E+00  0.00000000E+00
  0.00000000E+00  0.00000000E+00  0.00000000E+00
  0.00000000E+00  0.00000000E+00  0.00000000E+00
  0.00000000E+00  0.00000000E+00  0.00000000E+00
  0.00000000E+00  0.00000000E+00  0.00000000E+00
  0.00000000E+00  0.00000000E+00  0.00000000E+00
  0.00000000E+00  0.00000000E+00  0.00000000E+00
  0.00000000E+00  0.00000000E+00  0.00000000E+00
  0.00000000E+00  0.00000000E+00  0.00000000E+00
  0.00000000E+00  0.00000000E+00  0.00000000E+00
