POSCAR-clean                            
   1.00000000000000     
    14.8611606303391302   -0.0038925078995232    0.0000000000000000
    -7.4305803151196237   12.7577832811496314    0.0000000000000000
     0.0000000000000000    0.0000000000000000   15.0000000000000000
   C    N    C    Cr
    58     1    11     1
Direct
 -0.0001783331190432  0.9988968807609943  0.4976475865072854
  0.0559922414437169  0.1108511931971871  0.4977193078826758
  0.1671839780808702  0.0010343539379248  0.4975549275544382
  0.2228413994109119  0.1127904025599828  0.4982526259551742
  0.3340392360391781  0.0018265833600009  0.4977350409672827
  0.3899942249581489  0.1134455657732826  0.4983838390703049
  0.4999316832657611  0.9997283093658279  0.4977233853017862
  0.5557605306206362  0.1112744034911869  0.4976518966805189
  0.6657438305639077  0.9976982731286757  0.4982455095013761
  0.7215793602247316  0.1091164577229725  0.4975392957233515
  0.8323784548462517  0.9976603399831412  0.4983669336332325
  0.8880764645390810  0.1092851772054066  0.4977372249478218
  0.9991484503549434  0.1652036537405719  0.4978160870282473
  0.0544140795442513  0.2765710520375034  0.4984881781778153
  0.1672784757209991  0.1678901756207839  0.4983580731894603
  0.2230690191595450  0.2796943875522415  0.5000612085164080
  0.3348804749993269  0.1698763561307947  0.4993953175436829
  0.3907377986715695  0.2812758005509917  0.5024694339792460
  0.5007940420006506  0.1680811593000567  0.4984109952525744
  0.5568427596021632  0.2797807895244788  0.5000477714529212
  0.6666164427356078  0.1654664748852522  0.4975204635054598
  0.7226189084822751  0.2768480726993180  0.4980200370964618
  0.8327049098170124  0.1649114589469549  0.4976157460571826
  0.8884151002602644  0.2763721092900585  0.4977591048109661
  0.9991009655704590  0.3322251036681473  0.4983216993982361
  0.0545307958457620  0.4440692723131989  0.4987745994500304
  0.1654229180605595  0.3328628914410414  0.5000117672753311
  0.2192846805918126  0.4439427124197063  0.5017345539894915
  0.3353421201216508  0.3378697958355104  0.5033936471371601
  0.3876020321566198  0.4485591022604657  0.5094687114499137
  0.5027646517018255  0.3379238650693113  0.5035478620962212
  0.5615562586723142  0.4490540193177704  0.5097572986901830
  0.6677234287222551  0.3329730815864119  0.4996373130901187
  0.7248873939324448  0.4440947628285677  0.5012089128336150
  0.8334515591092756  0.3323835220494007  0.4979081961228763
  0.8896992332349649  0.4439295400272897  0.4982421402654980
  0.0001139822757972  0.5002809484446221  0.4982836561646217
  0.0559378610914310  0.6120075059652144  0.4982750845427636
  0.1645742582983660  0.4999244619734922  0.5003095390289477
  0.2202732101076506  0.6113526054178792  0.5003067737012959
  0.3289523418626207  0.4993321951274246  0.5052556227214267
  0.3852509227113172  0.6118438994132445  0.5052418672091677
  0.6709079051128347  0.4997233490733874  0.5052524817936576
  0.7275278795234058  0.6126420805261383  0.5052659307820296
  0.8355571028548109  0.5000580685431310  0.4995053634809342
  0.8911928768706185  0.6111556789296726  0.4994826543775340
  0.0010691257049631  0.6681303643531086  0.4982335198626457
  0.0561977063108842  0.7794299475731106  0.4979278110400873
  0.1660929755022432  0.6674173118820709  0.4987780426280446
  0.2217898707296408  0.7788432976745090  0.4983194300087344
  0.3308543984665042  0.6672650094143506  0.5017066721064999
  0.3879433870914885  0.7782746046771352  0.4999917403942986
  0.4946097498612532  0.6625435182502245  0.5093813206259110
  0.5532629102885280  0.7732299616790422  0.5034151037166823
  0.6685422831802419  0.6626129399395098  0.5098519070259357
  0.7210904623997821  0.7731341171539988  0.5035874434837345
  0.8375715873181464  0.6679716235530557  0.5011794512584634
  0.8915007810472486  0.7788015544229955  0.4996592921814586
  0.0014258483332799  0.8344598391240382  0.4980670530772971
  0.0561970282219294  0.9446630776507579  0.4975711028079487
  0.1668506495640510  0.8351293578592016  0.4977607611369432
  0.2234667863195186  0.9463431310178526  0.4976159857078285
  0.3328393845405715  0.8344029629680210  0.4984820165707501
  0.3890538918611638  0.9454996229652270  0.4978227394760221
  0.4988911717032365  0.8314206943521602  0.5000577205278011
  0.5548646643051495  0.9429880927512496  0.4983618667308551
  0.6653426110704933  0.8296767591560413  0.5025003420960139
  0.7205871773573558  0.9407502074591546  0.4993870937888981
  0.8338235047633218  0.8317497864089765  0.4999655016992247
  0.8884186233877409  0.9432432694105833  0.4983582157996218
  0.5274156711366420  0.5554509574365684  0.5549721793248552
 
  0.00000000E+00  0.00000000E+00  0.00000000E+00
  0.00000000E+00  0.00000000E+00  0.00000000E+00
  0.00000000E+00  0.00000000E+00  0.00000000E+00
  0.00000000E+00  0.00000000E+00  0.00000000E+00
  0.00000000E+00  0.00000000E+00  0.00000000E+00
  0.00000000E+00  0.00000000E+00  0.00000000E+00
  0.00000000E+00  0.00000000E+00  0.00000000E+00
  0.00000000E+00  0.00000000E+00  0.00000000E+00
  0.00000000E+00  0.00000000E+00  0.00000000E+00
  0.00000000E+00  0.00000000E+00  0.00000000E+00
  0.00000000E+00  0.00000000E+00  0.00000000E+00
  0.00000000E+00  0.00000000E+00  0.00000000E+00
  0.00000000E+00  0.00000000E+00  0.00000000E+00
  0.00000000E+00  0.00000000E+00  0.00000000E+00
  0.00000000E+00  0.00000000E+00  0.00000000E+00
  0.00000000E+00  0.00000000E+00  0.00000000E+00
  0.00000000E+00  0.00000000E+00  0.00000000E+00
  0.00000000E+00  0.00000000E+00  0.00000000E+00
  0.00000000E+00  0.00000000E+00  0.00000000E+00
  0.00000000E+00  0.00000000E+00  0.00000000E+00
  0.00000000E+00  0.00000000E+00  0.00000000E+00
  0.00000000E+00  0.00000000E+00  0.00000000E+00
  0.00000000E+00  0.00000000E+00  0.00000000E+00
  0.00000000E+00  0.00000000E+00  0.00000000E+00
  0.00000000E+00  0.00000000E+00  0.00000000E+00
  0.00000000E+00  0.00000000E+00  0.00000000E+00
  0.00000000E+00  0.00000000E+00  0.00000000E+00
  0.00000000E+00  0.00000000E+00  0.00000000E+00
  0.00000000E+00  0.00000000E+00  0.00000000E+00
  0.00000000E+00  0.00000000E+00  0.00000000E+00
  0.00000000E+00  0.00000000E+00  0.00000000E+00
  0.00000000E+00  0.00000000E+00  0.00000000E+00
  0.00000000E+00  0.00000000E+00  0.00000000E+00
  0.00000000E+00  0.00000000E+00  0.00000000E+00
  0.00000000E+00  0.00000000E+00  0.00000000E+00
  0.00000000E+00  0.00000000E+00  0.00000000E+00
  0.00000000E+00  0.00000000E+00  0.00000000E+00
  0.00000000E+00  0.00000000E+00  0.00000000E+00
  0.00000000E+00  0.00000000E+00  0.00000000E+00
  0.00000000E+00  0.00000000E+00  0.00000000E+00
  0.00000000E+00  0.00000000E+00  0.00000000E+00
  0.00000000E+00  0.00000000E+00  0.00000000E+00
  0.00000000E+00  0.00000000E+00  0.00000000E+00
  0.00000000E+00  0.00000000E+00  0.00000000E+00
  0.00000000E+00  0.00000000E+00  0.00000000E+00
  0.00000000E+00  0.00000000E+00  0.00000000E+00
  0.00000000E+00  0.00000000E+00  0.00000000E+00
  0.00000000E+00  0.00000000E+00  0.00000000E+00
  0.00000000E+00  0.00000000E+00  0.00000000E+00
  0.00000000E+00  0.00000000E+00  0.00000000E+00
  0.00000000E+00  0.00000000E+00  0.00000000E+00
  0.00000000E+00  0.00000000E+00  0.00000000E+00
  0.00000000E+00  0.00000000E+00  0.00000000E+00
  0.00000000E+00  0.00000000E+00  0.00000000E+00
  0.00000000E+00  0.00000000E+00  0.00000000E+00
  0.00000000E+00  0.00000000E+00  0.00000000E+00
  0.00000000E+00  0.00000000E+00  0.00000000E+00
  0.00000000E+00  0.00000000E+00  0.00000000E+00
  0.00000000E+00  0.00000000E+00  0.00000000E+00
  0.00000000E+00  0.00000000E+00  0.00000000E+00
  0.00000000E+00  0.00000000E+00  0.00000000E+00
  0.00000000E+00  0.00000000E+00  0.00000000E+00
  0.00000000E+00  0.00000000E+00  0.00000000E+00
  0.00000000E+00  0.00000000E+00  0.00000000E+00
  0.00000000E+00  0.00000000E+00  0.00000000E+00
  0.00000000E+00  0.00000000E+00  0.00000000E+00
  0.00000000E+00  0.00000000E+00  0.00000000E+00
  0.00000000E+00  0.00000000E+00  0.00000000E+00
  0.00000000E+00  0.00000000E+00  0.00000000E+00
  0.00000000E+00  0.00000000E+00  0.00000000E+00
  0.00000000E+00  0.00000000E+00  0.00000000E+00
