POSCAR-c3n4                             
   1.1000000000000001     
    13.8434242346000005   -0.1907404740000000    0.0000000000000000
    -6.9217121174000003   11.6951909939000007    0.0000000000000000
     0.0000000000000000    0.0000000000000000   14.9999999999999982
   C    N    Ge   C    O 
    24    32     1     1     1
Direct
  0.0844803641635732  0.1707271993351495  0.4768625726776650
  0.2851178664601468  0.4242584261520588  0.4886470703723701
  0.1257477057059559  0.4230009645295844  0.5028660303031495
  0.4530652532853873  0.0701054963938093  0.4987603802245142
  0.4160807189952809  0.3985983664281810  0.4481014597963719
  0.1068393194840905  0.0392457777919060  0.4759016772055509
  0.1072230633740610  0.7226178514970856  0.5002670264532308
  0.2897920306998091  0.9117586757825544  0.4906834527910585
  0.1125117681501359  0.8930157914636189  0.4994716105702713
  0.4595846719791141  0.5696636114291146  0.4986454574964179
  0.4300157418488537  0.8962215887801676  0.4847307904021411
  0.1152415578015743  0.5755071895360708  0.5144785205682185
  0.6280712913851816  0.2178135744926579  0.5015938347083964
  0.8004301386183100  0.3841647780374445  0.4906502428698147
  0.5483047934822581  0.3895343643442561  0.3995257845782264
  0.9387499899829506  0.0271735071658135  0.4977294960088710
  0.9623558093633964  0.4010712605205123  0.4955421269982828
  0.6011759096771363  0.0510075180354485  0.5152672643104411
  0.6300534422098616  0.7064384888626740  0.4992929075071074
  0.7967101633402792  0.8621058149176785  0.5163887815618068
  0.5673717718195321  0.8852029892023724  0.5165720422130604
  0.9502155535768689  0.5583673478849681  0.4892675508802775
  0.9556925952587758  0.8767645868220825  0.5213545246688646
  0.5952239001978931  0.5505363082306696  0.4430963330811239
  0.1816670497572736  0.3768278257837352  0.4943243295879535
  0.1503636757683680  0.1464277336777729  0.4632976001626423
  0.3449930859465721  0.0157583759997902  0.5037847662156677
  0.4492291369232247  0.3392637920913722  0.4161249371302826
  0.3173992450795209  0.3615305303695047  0.4628073386728013
  0.5191328944533052  0.1741365739636278  0.4983939100614735
  0.1586008860456815  0.9924132819456736  0.4691829636217211
  0.0022052757319469  0.9837298836193358  0.4965938438396266
  0.1704647579115904  0.8434619682081179  0.4967215529260124
  0.1615691527190906  0.6786581939189855  0.5236872088671434
  0.3550650702617150  0.5301168296591089  0.5074924920888263
  0.4715332028026133  0.8352868557082043  0.4894456147815121
  0.3293728748660732  0.8523362374362311  0.4730223781469744
  0.5269496651987592  0.6661002614392985  0.5200775848138491
  0.1740419925016902  0.5312181591813305  0.5168567800756182
  0.0109910063682839  0.5124859009483793  0.5011645059437905
  0.6941141056446249  0.3247576963170867  0.4926605936813945
  0.6639651872971095  0.1529071260693356  0.5182305288150986
  0.8406087457412362  0.9696729225222147  0.5053786026270151
  0.0239444225534023  0.3612514272641213  0.4955104097900067
  0.8612558702091612  0.3411081735993562  0.4893614049849249
  0.9922817152778617  0.1376051121014990  0.4912001438152001
  0.6331780621232213  0.9827774141855442  0.5305928651410171
  0.4944393121218738  0.0042498769797460  0.4974303472112990
  0.6942782180516102  0.8076928681349553  0.5157470771116128
  0.6620654639461399  0.6500719323491116  0.4581138920500106
  0.8485090196733759  0.4957560278736783  0.4858970301357701
  0.0190602985113738  0.8399620939566044  0.5316723578103403
  0.8553377936935548  0.8193717011078582  0.5324944211335770
  0.0077059388532026  0.6676539015006532  0.4800832497620274
  0.6217917427819115  0.4871019631718141  0.4069432642155437
  0.4896288837615993  0.5048296908923504  0.4646212418372619
  0.3248146490242663  0.6387821536190894  0.5533823111403992
  0.2542374316774784  0.5281610358518971  0.6931998039821802
  0.2452700274538766  0.5469555125619791  0.7588057094455326

  0.00000000E+00  0.00000000E+00  0.00000000E+00
  0.00000000E+00  0.00000000E+00  0.00000000E+00
  0.00000000E+00  0.00000000E+00  0.00000000E+00
  0.00000000E+00  0.00000000E+00  0.00000000E+00
  0.00000000E+00  0.00000000E+00  0.00000000E+00
  0.00000000E+00  0.00000000E+00  0.00000000E+00
  0.00000000E+00  0.00000000E+00  0.00000000E+00
  0.00000000E+00  0.00000000E+00  0.00000000E+00
  0.00000000E+00  0.00000000E+00  0.00000000E+00
  0.00000000E+00  0.00000000E+00  0.00000000E+00
  0.00000000E+00  0.00000000E+00  0.00000000E+00
  0.00000000E+00  0.00000000E+00  0.00000000E+00
  0.00000000E+00  0.00000000E+00  0.00000000E+00
  0.00000000E+00  0.00000000E+00  0.00000000E+00
  0.00000000E+00  0.00000000E+00  0.00000000E+00
  0.00000000E+00  0.00000000E+00  0.00000000E+00
  0.00000000E+00  0.00000000E+00  0.00000000E+00
  0.00000000E+00  0.00000000E+00  0.00000000E+00
  0.00000000E+00  0.00000000E+00  0.00000000E+00
  0.00000000E+00  0.00000000E+00  0.00000000E+00
  0.00000000E+00  0.00000000E+00  0.00000000E+00
  0.00000000E+00  0.00000000E+00  0.00000000E+00
  0.00000000E+00  0.00000000E+00  0.00000000E+00
  0.00000000E+00  0.00000000E+00  0.00000000E+00
  0.00000000E+00  0.00000000E+00  0.00000000E+00
  0.00000000E+00  0.00000000E+00  0.00000000E+00
  0.00000000E+00  0.00000000E+00  0.00000000E+00
  0.00000000E+00  0.00000000E+00  0.00000000E+00
  0.00000000E+00  0.00000000E+00  0.00000000E+00
  0.00000000E+00  0.00000000E+00  0.00000000E+00
  0.00000000E+00  0.00000000E+00  0.00000000E+00
  0.00000000E+00  0.00000000E+00  0.00000000E+00
  0.00000000E+00  0.00000000E+00  0.00000000E+00
  0.00000000E+00  0.00000000E+00  0.00000000E+00
  0.00000000E+00  0.00000000E+00  0.00000000E+00
  0.00000000E+00  0.00000000E+00  0.00000000E+00
  0.00000000E+00  0.00000000E+00  0.00000000E+00
  0.00000000E+00  0.00000000E+00  0.00000000E+00
  0.00000000E+00  0.00000000E+00  0.00000000E+00
  0.00000000E+00  0.00000000E+00  0.00000000E+00
  0.00000000E+00  0.00000000E+00  0.00000000E+00
  0.00000000E+00  0.00000000E+00  0.00000000E+00
  0.00000000E+00  0.00000000E+00  0.00000000E+00
  0.00000000E+00  0.00000000E+00  0.00000000E+00
  0.00000000E+00  0.00000000E+00  0.00000000E+00
  0.00000000E+00  0.00000000E+00  0.00000000E+00
  0.00000000E+00  0.00000000E+00  0.00000000E+00
  0.00000000E+00  0.00000000E+00  0.00000000E+00
  0.00000000E+00  0.00000000E+00  0.00000000E+00
  0.00000000E+00  0.00000000E+00  0.00000000E+00
  0.00000000E+00  0.00000000E+00  0.00000000E+00
  0.00000000E+00  0.00000000E+00  0.00000000E+00
  0.00000000E+00  0.00000000E+00  0.00000000E+00
  0.00000000E+00  0.00000000E+00  0.00000000E+00
  0.00000000E+00  0.00000000E+00  0.00000000E+00
  0.00000000E+00  0.00000000E+00  0.00000000E+00
  0.00000000E+00  0.00000000E+00  0.00000000E+00
  0.00000000E+00  0.00000000E+00  0.00000000E+00
  0.00000000E+00  0.00000000E+00  0.00000000E+00
