POSCAR-c3n4                             
   1.1000000000000001     
    13.8434242346000005   -0.1907404740000000    0.0000000000000000
    -6.9217121174000003   11.6951909939000007    0.0000000000000000
     0.0000000000000000    0.0000000000000000   14.9999999999999982
   C    N    Ge   C    O 
    24    32     1     1     1
Direct
  0.0834211854684940  0.1711062895278335  0.4751542641930330
  0.2844338062794818  0.4233714085582133  0.4974377492649165
  0.1250583781001647  0.4229483043590197  0.5037679867009804
  0.4560874148607698  0.0698493375000110  0.4913100209468756
  0.4158112191855757  0.3957388909469773  0.4627532919366235
  0.1080681263362539  0.0410575875584754  0.4782401431483249
  0.1073707268257975  0.7229078634458004  0.4990123485331929
  0.2920310368758826  0.9121407700847356  0.4875479425084316
  0.1135075049648610  0.8941729650189124  0.4998723027286870
  0.4581247262972536  0.5701325541643956  0.5020545236176556
  0.4317270888655346  0.8950296167067456  0.4858536139933991
  0.1151463310717512  0.5756283978238985  0.5136488194713326
  0.6306826764158950  0.2173406228901608  0.4944820964324583
  0.8010790771838348  0.3847767033757232  0.4866185181008159
  0.5449977187629466  0.3867184688411434  0.4078188516653062
  0.9374859059058538  0.0261795353539817  0.4914022892622063
  0.9623781567199238  0.4013569709700235  0.4926436893466308
  0.6038516730024773  0.0507680686313246  0.5121788188253366
  0.6272044886356373  0.7071628153855533  0.4967916579357705
  0.7959707974858762  0.8612605691502118  0.5114433121632308
  0.5685351732081795  0.8848245821689592  0.5215789485689716
  0.9503331017532988  0.5587269311504102  0.4876663779284713
  0.9552291805793908  0.8766981938116393  0.5187215463518701
  0.5906181384871629  0.5508987784629801  0.4406603572805871
  0.1808062346407818  0.3762448420000714  0.4988629753590320
  0.1510074800662930  0.1480794616510194  0.4666182461503099
  0.3476534405595039  0.0167717078265623  0.4951778008169491
  0.4500093118403550  0.3348437609690458  0.4357998782979755
  0.3179584512344227  0.3587223095817177  0.4805455542032616
  0.5221097542527233  0.1735159320743025  0.4896362023216869
  0.1611492649247866 -0.0046410112960415  0.4738882810691360
  0.0020084753296762 -0.0160657949255652  0.4945580279220054
  0.1710445569727619  0.8438676872454103  0.4956606692372389
  0.1618220202080982  0.6788102837235432  0.5216683993999645
  0.3541063722461328  0.5307204473070420  0.5118200939507082
  0.4726039899522485  0.8338855566932928  0.4944877199988928
  0.3308123895981742  0.8507929579516340  0.4753494562056474
  0.5255127544103766  0.6674092233427732  0.5203935058411268
  0.1733886755125166  0.5308663416262204  0.5188692816341842
  0.0109811048046244  0.5127263759320455  0.4991575670774583
  0.6952199666698171  0.3243594661298810  0.4872344939145952
  0.6667392145967257  0.1529557523807644  0.5123362305622431
  0.8393464149039317  0.9680634184986959  0.4971422552386565
  0.0236724847557854  0.3614391916313068  0.4929391448817572
  0.8614569964703591  0.3416328916415138  0.4852786477826432
 -0.0104041694378345  0.1362831931245460  0.4833352508248478
  0.6352264367926848 -0.0168328672841048  0.5317515415349333
  0.4970229052825260  0.0036118265452720  0.4937517421878055
  0.6934662198358067  0.8074713008980391  0.5138224207056645
  0.6564876297497759  0.6513066148188411  0.4514121038829242
  0.8486576320049692  0.4960522818480986  0.4832183273077448
  0.0185177370077368  0.8397877689808726  0.5294069517071818
  0.8545746010511306  0.8188824631695708  0.5284213264454349
  0.0073891487630645  0.6681271211845031  0.4797823501559386
  0.6144970913271935  0.4860488880241385  0.4029603379791407
  0.4877075635575708  0.5042418970600819  0.4692880916399343
  0.3259893805351265  0.6416348442064215  0.5555709788872804
  0.2687389546629610  0.5351082784204132  0.7070300139682141
  0.2336871632378931  0.5478018727761892  0.7641646598757280

  0.00000000E+00  0.00000000E+00  0.00000000E+00
  0.00000000E+00  0.00000000E+00  0.00000000E+00
  0.00000000E+00  0.00000000E+00  0.00000000E+00
  0.00000000E+00  0.00000000E+00  0.00000000E+00
  0.00000000E+00  0.00000000E+00  0.00000000E+00
  0.00000000E+00  0.00000000E+00  0.00000000E+00
  0.00000000E+00  0.00000000E+00  0.00000000E+00
  0.00000000E+00  0.00000000E+00  0.00000000E+00
  0.00000000E+00  0.00000000E+00  0.00000000E+00
  0.00000000E+00  0.00000000E+00  0.00000000E+00
  0.00000000E+00  0.00000000E+00  0.00000000E+00
  0.00000000E+00  0.00000000E+00  0.00000000E+00
  0.00000000E+00  0.00000000E+00  0.00000000E+00
  0.00000000E+00  0.00000000E+00  0.00000000E+00
  0.00000000E+00  0.00000000E+00  0.00000000E+00
  0.00000000E+00  0.00000000E+00  0.00000000E+00
  0.00000000E+00  0.00000000E+00  0.00000000E+00
  0.00000000E+00  0.00000000E+00  0.00000000E+00
  0.00000000E+00  0.00000000E+00  0.00000000E+00
  0.00000000E+00  0.00000000E+00  0.00000000E+00
  0.00000000E+00  0.00000000E+00  0.00000000E+00
  0.00000000E+00  0.00000000E+00  0.00000000E+00
  0.00000000E+00  0.00000000E+00  0.00000000E+00
  0.00000000E+00  0.00000000E+00  0.00000000E+00
  0.00000000E+00  0.00000000E+00  0.00000000E+00
  0.00000000E+00  0.00000000E+00  0.00000000E+00
  0.00000000E+00  0.00000000E+00  0.00000000E+00
  0.00000000E+00  0.00000000E+00  0.00000000E+00
  0.00000000E+00  0.00000000E+00  0.00000000E+00
  0.00000000E+00  0.00000000E+00  0.00000000E+00
  0.00000000E+00  0.00000000E+00  0.00000000E+00
  0.00000000E+00  0.00000000E+00  0.00000000E+00
  0.00000000E+00  0.00000000E+00  0.00000000E+00
  0.00000000E+00  0.00000000E+00  0.00000000E+00
  0.00000000E+00  0.00000000E+00  0.00000000E+00
  0.00000000E+00  0.00000000E+00  0.00000000E+00
  0.00000000E+00  0.00000000E+00  0.00000000E+00
  0.00000000E+00  0.00000000E+00  0.00000000E+00
  0.00000000E+00  0.00000000E+00  0.00000000E+00
  0.00000000E+00  0.00000000E+00  0.00000000E+00
  0.00000000E+00  0.00000000E+00  0.00000000E+00
  0.00000000E+00  0.00000000E+00  0.00000000E+00
  0.00000000E+00  0.00000000E+00  0.00000000E+00
  0.00000000E+00  0.00000000E+00  0.00000000E+00
  0.00000000E+00  0.00000000E+00  0.00000000E+00
  0.00000000E+00  0.00000000E+00  0.00000000E+00
  0.00000000E+00  0.00000000E+00  0.00000000E+00
  0.00000000E+00  0.00000000E+00  0.00000000E+00
  0.00000000E+00  0.00000000E+00  0.00000000E+00
  0.00000000E+00  0.00000000E+00  0.00000000E+00
  0.00000000E+00  0.00000000E+00  0.00000000E+00
  0.00000000E+00  0.00000000E+00  0.00000000E+00
  0.00000000E+00  0.00000000E+00  0.00000000E+00
  0.00000000E+00  0.00000000E+00  0.00000000E+00
  0.00000000E+00  0.00000000E+00  0.00000000E+00
  0.00000000E+00  0.00000000E+00  0.00000000E+00
  0.00000000E+00  0.00000000E+00  0.00000000E+00
  0.00000000E+00  0.00000000E+00  0.00000000E+00
  0.00000000E+00  0.00000000E+00  0.00000000E+00
