POSCAR-clean                            
   1.00000000000000     
    14.8480619358292785   -0.0000351717570359    0.0000000000000000
    -7.4240309678647423   12.7474195851106433    0.0000000000000000
     0.0000000000000000    0.0000000000000000   15.0000000000000000
   C    N    C    Cr
    17     1    52     1
Direct
  0.0001915758618054  0.9998457865833714  0.4976487940489633
  0.0561727808705186  0.1116064882362124  0.4977226534578065
  0.1687280862469365  0.0025718818012379  0.4975561755969693
  0.2246067744043998  0.1144093941706075  0.4984686839975510
  0.3340849679093978  0.0025607598415647  0.4977453610736262
  0.3900472653159426  0.1143967531859289  0.4985937664363504
  0.4998933337213387  0.9998274407013668  0.4977341728543152
  0.5556716520181197  0.1115875972888674  0.4976541360056856
  0.6658809642924624  0.9979762665484486  0.4982620100471777
  0.7216156054354386  0.1093544792139767  0.4975136729242635
  0.8323546139896791  0.9979882460832101  0.4983779852570080
  0.8879932064629514  0.1093636387853252  0.4977028501475544
  0.9995434365602094  0.1658224042186802  0.4977918861773389
  0.0550942076939336  0.2768377875009875  0.4985095406762383
  0.1675391785955824  0.1684091666569287  0.4984411816112768
  0.2239364403011166  0.2795319922745847  0.4999172820747830
  0.3355884961718729  0.1709231293838371  0.4997848514709204
  0.3908798008713390  0.2814934991175875  0.5025001880790398
  0.5011122328933979  0.1683935279541942  0.4984755802848397
  0.5558452976964148  0.2795256439763847  0.4998598237318745
  0.6665176913981554  0.1658083402448653  0.4975100605213783
  0.7219801402296682  0.2768254117687334  0.4980713693916030
  0.8326541349186272  0.1650640844438911  0.4975965296539187
  0.8884000624676105  0.2765593344827906  0.4977457996958350
  0.9993716099710568  0.3323908893758798  0.4983033925678129
  0.0546216202915559  0.4437846353527206  0.4987244731378482
  0.1662699806356400  0.3329845831715872  0.5000142603338915
  0.2200015148317220  0.4439454111390759  0.5017750670127015
  0.3367150350309629  0.3379703127659752  0.5030080670962178
  0.3895885198010660  0.4480196689387910  0.5091322193392642
  0.5015339240326924  0.3379930048402713  0.5031173888091445
  0.5587128090594362  0.4480493392622620  0.5093963262010988
  0.6669562612512223  0.3329757936251809  0.4996544149193056
  0.7241767195957962  0.4439436649104209  0.5012994771059027
  0.8332546654332944  0.3323855056540737  0.4979244280649695
  0.8893942112567359  0.4437832256349239  0.4982474009177764
  0.9999827448871912  0.4997350915403729  0.4982554411686024
  0.0558027583538347  0.6113762842138968  0.4982075524572736
  0.1650944542200961  0.4998302861366568  0.5003127135836252
  0.2205771507956769  0.6110791642989923  0.5003695778109574
  0.3295386646213530  0.4987526717046435  0.5051110724063435
  0.3853685626646666  0.6108939058956437  0.5052652454342450
  0.6694756046595955  0.4987537113344871  0.5050568306878986
  0.7257882762144376  0.6108927956885779  0.5052101022101496
  0.8349667541192289  0.4998312515445846  0.4996021863476301
  0.8907304533224263  0.6110770126925260  0.4996588909911139
  0.0013040141899410  0.6674104264498553  0.4982022011027354
  0.0567714147732872  0.7788962506127604  0.4978888777342121
  0.1663355358878533  0.6674073913405252  0.4986877957567373
  0.2223570429170394  0.7788897185631143  0.4982734128233588
  0.3310688334519440  0.6667671741246792  0.5020048281075873
  0.3880742432191369  0.7780731211956322  0.5001042318683062
  0.4952942455712304  0.6620321585612814  0.5092400208394139
  0.5532115208669381  0.7729290615487585  0.5032503020061725
  0.6669871050949752  0.6619965416666815  0.5095028101190309
  0.7199689100015760  0.7729043311832342  0.5033806495904187
  0.8359345986788185  0.6667692814434076  0.5015312903674030
  0.8902484861625197  0.7780828883514772  0.4997478405098050
  0.0014067542646217  0.8345962160554166  0.4980283350281169
  0.0570383536980614  0.9459467305055469  0.4974945178701589
  0.1675523811030004  0.8348682659082414  0.4977293946327848
  0.2234373188709995  0.9466331208759087  0.4976024422570333
  0.3334231082952641  0.8345830615984013  0.4984652632954507
  0.3891460666010573  0.9459306313945390  0.4977800342445988
  0.4988952617947007  0.8312933645511578  0.5000265364559837
  0.5546735536613809  0.9429628067027238  0.4983857080502005
  0.6649855147137060  0.8297038459314479  0.5024852520615113
  0.7207324921641174  0.9412057917270289  0.4994450345977057
  0.8326506371505715  0.8312966479797623  0.4999847562352500
  0.8885473711176317  0.9429751713277099  0.4984114128082453
  0.5279211554899561  0.5559346383451569  0.5561761468309925
 
  0.00000000E+00  0.00000000E+00  0.00000000E+00
  0.00000000E+00  0.00000000E+00  0.00000000E+00
  0.00000000E+00  0.00000000E+00  0.00000000E+00
  0.00000000E+00  0.00000000E+00  0.00000000E+00
  0.00000000E+00  0.00000000E+00  0.00000000E+00
  0.00000000E+00  0.00000000E+00  0.00000000E+00
  0.00000000E+00  0.00000000E+00  0.00000000E+00
  0.00000000E+00  0.00000000E+00  0.00000000E+00
  0.00000000E+00  0.00000000E+00  0.00000000E+00
  0.00000000E+00  0.00000000E+00  0.00000000E+00
  0.00000000E+00  0.00000000E+00  0.00000000E+00
  0.00000000E+00  0.00000000E+00  0.00000000E+00
  0.00000000E+00  0.00000000E+00  0.00000000E+00
  0.00000000E+00  0.00000000E+00  0.00000000E+00
  0.00000000E+00  0.00000000E+00  0.00000000E+00
  0.00000000E+00  0.00000000E+00  0.00000000E+00
  0.00000000E+00  0.00000000E+00  0.00000000E+00
  0.00000000E+00  0.00000000E+00  0.00000000E+00
  0.00000000E+00  0.00000000E+00  0.00000000E+00
  0.00000000E+00  0.00000000E+00  0.00000000E+00
  0.00000000E+00  0.00000000E+00  0.00000000E+00
  0.00000000E+00  0.00000000E+00  0.00000000E+00
  0.00000000E+00  0.00000000E+00  0.00000000E+00
  0.00000000E+00  0.00000000E+00  0.00000000E+00
  0.00000000E+00  0.00000000E+00  0.00000000E+00
  0.00000000E+00  0.00000000E+00  0.00000000E+00
  0.00000000E+00  0.00000000E+00  0.00000000E+00
  0.00000000E+00  0.00000000E+00  0.00000000E+00
  0.00000000E+00  0.00000000E+00  0.00000000E+00
  0.00000000E+00  0.00000000E+00  0.00000000E+00
  0.00000000E+00  0.00000000E+00  0.00000000E+00
  0.00000000E+00  0.00000000E+00  0.00000000E+00
  0.00000000E+00  0.00000000E+00  0.00000000E+00
  0.00000000E+00  0.00000000E+00  0.00000000E+00
  0.00000000E+00  0.00000000E+00  0.00000000E+00
  0.00000000E+00  0.00000000E+00  0.00000000E+00
  0.00000000E+00  0.00000000E+00  0.00000000E+00
  0.00000000E+00  0.00000000E+00  0.00000000E+00
  0.00000000E+00  0.00000000E+00  0.00000000E+00
  0.00000000E+00  0.00000000E+00  0.00000000E+00
  0.00000000E+00  0.00000000E+00  0.00000000E+00
  0.00000000E+00  0.00000000E+00  0.00000000E+00
  0.00000000E+00  0.00000000E+00  0.00000000E+00
  0.00000000E+00  0.00000000E+00  0.00000000E+00
  0.00000000E+00  0.00000000E+00  0.00000000E+00
  0.00000000E+00  0.00000000E+00  0.00000000E+00
  0.00000000E+00  0.00000000E+00  0.00000000E+00
  0.00000000E+00  0.00000000E+00  0.00000000E+00
  0.00000000E+00  0.00000000E+00  0.00000000E+00
  0.00000000E+00  0.00000000E+00  0.00000000E+00
  0.00000000E+00  0.00000000E+00  0.00000000E+00
  0.00000000E+00  0.00000000E+00  0.00000000E+00
  0.00000000E+00  0.00000000E+00  0.00000000E+00
  0.00000000E+00  0.00000000E+00  0.00000000E+00
  0.00000000E+00  0.00000000E+00  0.00000000E+00
  0.00000000E+00  0.00000000E+00  0.00000000E+00
  0.00000000E+00  0.00000000E+00  0.00000000E+00
  0.00000000E+00  0.00000000E+00  0.00000000E+00
  0.00000000E+00  0.00000000E+00  0.00000000E+00
  0.00000000E+00  0.00000000E+00  0.00000000E+00
  0.00000000E+00  0.00000000E+00  0.00000000E+00
  0.00000000E+00  0.00000000E+00  0.00000000E+00
  0.00000000E+00  0.00000000E+00  0.00000000E+00
  0.00000000E+00  0.00000000E+00  0.00000000E+00
  0.00000000E+00  0.00000000E+00  0.00000000E+00
  0.00000000E+00  0.00000000E+00  0.00000000E+00
  0.00000000E+00  0.00000000E+00  0.00000000E+00
  0.00000000E+00  0.00000000E+00  0.00000000E+00
  0.00000000E+00  0.00000000E+00  0.00000000E+00
  0.00000000E+00  0.00000000E+00  0.00000000E+00
  0.00000000E+00  0.00000000E+00  0.00000000E+00
