POSCAR-clean                            
   1.0000000000000000     
    14.8615528463000004    0.0031812626000000    0.0000000000000000
    -7.4307764231000002   12.7513250115000005    0.0000000000000000
     0.0000000000000000    0.0000000000000000   15.0000000000000000
   C    N    C    Cr   C    O 
    46     1    23     1     1     1
Direct
 -0.0009863041623850  0.9991088341254292  0.4920108134119033
  0.0547916402758357  0.1108790612807766  0.4913059526685611
  0.1669537422705795  0.0014021916526054  0.4919001539675332
  0.2228579604492875  0.1130497115849891  0.4920031674089932
  0.3333095175907719  0.0018114593039211  0.4916502171128229
  0.3894109431479011  0.1134957353636470  0.4937210677944072
  0.4996521624550974  0.0011977414361631  0.4896520656221748
  0.5555341781594432  0.1128813687147277  0.4917513867582933
  0.6657682062299676  0.9990588816199831  0.4888207083468680
  0.7215705934288383  0.1106036361814908  0.4900893337674298
  0.8321771465018291  0.9984875681864177  0.4917129494703617
  0.8878241364147570  0.1100539726083829  0.4908045425890031
  0.9988653565543476  0.1659246225784896  0.4909741566434858
  0.0544006746074150  0.2775298783688281  0.4914509212754412
  0.1663067146951691  0.1673225061511683  0.4912335340881633
  0.2219021445494778  0.2788710104209343  0.4903758107677426
  0.3344032408571568  0.1697245944832350  0.4940810624142604
  0.3904034050015962  0.2813351287512554  0.4968772846836618
  0.5005170443389066  0.1693812090274661  0.4943286538349281
  0.5565378169019604  0.2814052157288787  0.4988198428718677
  0.6664567379310131  0.1669077571034542  0.4918806039479992
  0.7221322331107671  0.2782074190708534  0.4947504739702690
  0.8326221890392163  0.1660361748433339  0.4908422650272086
  0.8883154460136852  0.2775254102754627  0.4921811588571920
  0.9991289214780193  0.3333543119875211  0.4921616927289497
  0.0547488172361540  0.4451595390514755  0.4927172807835643
  0.1652203546088601  0.3333168339612196  0.4915495265191361
  0.2197428002149882  0.4445563634179314  0.4929191191629849
  0.3337359035270444  0.3358099028929830  0.4914973942810122
  0.3868217942838463  0.4461601536927000  0.4916838392458147
  0.5021880855400419  0.3395730679196354  0.5036434043930317
  0.5595640057181321  0.4514842116887661  0.5144934864808064
  0.6675418522539425  0.3342846155020459  0.4987351990698373
  0.7243657893397787  0.4457074403293655  0.5013945381439384
  0.8332939213138173  0.3334526941209552  0.4940165573367180
  0.8891089560072933  0.4444855246537772  0.4949721024710457
 -0.0004576775867863  0.5011608171380196  0.4934701744630904
  0.0549431260032448  0.6124058539581319  0.4930788635439302
  0.1648874657327260  0.5005058956924948  0.4929112549475721
  0.2200019865881013  0.6118085755533195  0.4922322935542184
  0.3300078505039721  0.4999166548004247  0.4898024110693957
  0.3861908651032570  0.6127197984507861  0.4875519818237331
  0.6701280158121682  0.5006225606791175  0.5084114312694206
  0.7261871520407586  0.6117659750256412  0.5077260958835503
  0.8356292185116777  0.5013084606249649  0.4977161181034107
  0.8912857467062794  0.6121615285960764  0.4975239085111050
  0.0006802282805879  0.6675279835705283  0.4945185628128300
  0.0554022064744397  0.7779321866459910  0.4933829715803175
  0.1653892431612536  0.6679900145742762  0.4916903442430460
  0.2223433208874808  0.7793925988205032  0.4907508851746006
  0.3308004860290160  0.6678945623875410  0.4906805113454892
  0.3878980145257053  0.7788887643491362  0.4881898601781374
  0.4963687586221094  0.6657936075923486  0.4837689108601603
  0.5536449840415331  0.7759307830789689  0.4863208736652940
  0.6652233617433596  0.6611882905187674  0.5129663609530665
  0.7186621994807345  0.7724204366783689  0.5010277994455834
  0.8360658706541219  0.6675064255198233  0.5004239503945532
  0.8892622529598346  0.7783417146290447  0.4973095222793872
 -0.0000157267031637  0.8331472607659263  0.4940726179255784
  0.0559046903904613  0.9448477609091068  0.4923911610835666
  0.1660997011605869  0.8338431669476906  0.4917087918589119
  0.2219436708592354  0.9457458672909906  0.4917506505353669
  0.3328169595663651  0.8348730917691508  0.4892950785271414
  0.3887970524904833  0.9463245562112822  0.4898938145043241
  0.4988904342430626  0.8332330938470273  0.4863288671037938
  0.5548535432720428  0.9447602421637882  0.4879846008354816
  0.6650351369663465  0.8306919823923457  0.4930210031700188
  0.7206375789806593  0.9419956186042023  0.4908434751926873
  0.8313434930942000  0.8308900838417800  0.4969079581070058
  0.8874799149547129  0.9429030257277384  0.4929086530798302
  0.5132727531509229  0.5572203455402186  0.5415457566377058
  0.5225023832090113  0.5182235337164299  0.6613253659963191
  0.5274531442029835  0.4981062123393341  0.7355648511962813

  0.00000000E+00  0.00000000E+00  0.00000000E+00
  0.00000000E+00  0.00000000E+00  0.00000000E+00
  0.00000000E+00  0.00000000E+00  0.00000000E+00
  0.00000000E+00  0.00000000E+00  0.00000000E+00
  0.00000000E+00  0.00000000E+00  0.00000000E+00
  0.00000000E+00  0.00000000E+00  0.00000000E+00
  0.00000000E+00  0.00000000E+00  0.00000000E+00
  0.00000000E+00  0.00000000E+00  0.00000000E+00
  0.00000000E+00  0.00000000E+00  0.00000000E+00
  0.00000000E+00  0.00000000E+00  0.00000000E+00
  0.00000000E+00  0.00000000E+00  0.00000000E+00
  0.00000000E+00  0.00000000E+00  0.00000000E+00
  0.00000000E+00  0.00000000E+00  0.00000000E+00
  0.00000000E+00  0.00000000E+00  0.00000000E+00
  0.00000000E+00  0.00000000E+00  0.00000000E+00
  0.00000000E+00  0.00000000E+00  0.00000000E+00
  0.00000000E+00  0.00000000E+00  0.00000000E+00
  0.00000000E+00  0.00000000E+00  0.00000000E+00
  0.00000000E+00  0.00000000E+00  0.00000000E+00
  0.00000000E+00  0.00000000E+00  0.00000000E+00
  0.00000000E+00  0.00000000E+00  0.00000000E+00
  0.00000000E+00  0.00000000E+00  0.00000000E+00
  0.00000000E+00  0.00000000E+00  0.00000000E+00
  0.00000000E+00  0.00000000E+00  0.00000000E+00
  0.00000000E+00  0.00000000E+00  0.00000000E+00
  0.00000000E+00  0.00000000E+00  0.00000000E+00
  0.00000000E+00  0.00000000E+00  0.00000000E+00
  0.00000000E+00  0.00000000E+00  0.00000000E+00
  0.00000000E+00  0.00000000E+00  0.00000000E+00
  0.00000000E+00  0.00000000E+00  0.00000000E+00
  0.00000000E+00  0.00000000E+00  0.00000000E+00
  0.00000000E+00  0.00000000E+00  0.00000000E+00
  0.00000000E+00  0.00000000E+00  0.00000000E+00
  0.00000000E+00  0.00000000E+00  0.00000000E+00
  0.00000000E+00  0.00000000E+00  0.00000000E+00
  0.00000000E+00  0.00000000E+00  0.00000000E+00
  0.00000000E+00  0.00000000E+00  0.00000000E+00
  0.00000000E+00  0.00000000E+00  0.00000000E+00
  0.00000000E+00  0.00000000E+00  0.00000000E+00
  0.00000000E+00  0.00000000E+00  0.00000000E+00
  0.00000000E+00  0.00000000E+00  0.00000000E+00
  0.00000000E+00  0.00000000E+00  0.00000000E+00
  0.00000000E+00  0.00000000E+00  0.00000000E+00
  0.00000000E+00  0.00000000E+00  0.00000000E+00
  0.00000000E+00  0.00000000E+00  0.00000000E+00
  0.00000000E+00  0.00000000E+00  0.00000000E+00
  0.00000000E+00  0.00000000E+00  0.00000000E+00
  0.00000000E+00  0.00000000E+00  0.00000000E+00
  0.00000000E+00  0.00000000E+00  0.00000000E+00
  0.00000000E+00  0.00000000E+00  0.00000000E+00
  0.00000000E+00  0.00000000E+00  0.00000000E+00
  0.00000000E+00  0.00000000E+00  0.00000000E+00
  0.00000000E+00  0.00000000E+00  0.00000000E+00
  0.00000000E+00  0.00000000E+00  0.00000000E+00
  0.00000000E+00  0.00000000E+00  0.00000000E+00
  0.00000000E+00  0.00000000E+00  0.00000000E+00
  0.00000000E+00  0.00000000E+00  0.00000000E+00
  0.00000000E+00  0.00000000E+00  0.00000000E+00
  0.00000000E+00  0.00000000E+00  0.00000000E+00
  0.00000000E+00  0.00000000E+00  0.00000000E+00
  0.00000000E+00  0.00000000E+00  0.00000000E+00
  0.00000000E+00  0.00000000E+00  0.00000000E+00
  0.00000000E+00  0.00000000E+00  0.00000000E+00
  0.00000000E+00  0.00000000E+00  0.00000000E+00
  0.00000000E+00  0.00000000E+00  0.00000000E+00
  0.00000000E+00  0.00000000E+00  0.00000000E+00
  0.00000000E+00  0.00000000E+00  0.00000000E+00
  0.00000000E+00  0.00000000E+00  0.00000000E+00
  0.00000000E+00  0.00000000E+00  0.00000000E+00
  0.00000000E+00  0.00000000E+00  0.00000000E+00
  0.00000000E+00  0.00000000E+00  0.00000000E+00
  0.00000000E+00  0.00000000E+00  0.00000000E+00
  0.00000000E+00  0.00000000E+00  0.00000000E+00
