POSCAR-clean                            
   1.00000000000000     
    14.8578806982009617   -0.0001736020664687    0.0000000000000000
    -7.4289403490505510   12.7559991904742649    0.0000000000000000
     0.0000000000000000    0.0000000000000000   15.0000000000000000
   C    N    C    Cr
     9     1    60     1
Direct
  0.0000604467366986  0.0000029931849247  0.4976329502918558
  0.0553743992791078  0.1114093280133140  0.4977253071761429
  0.1680135465031264  0.0020911324597122  0.4975411335049987
  0.2235773896289719  0.1134530353341089  0.4982467308161722
  0.3344397636299453  0.0021774412604512  0.4977430405632592
  0.3905159249397077  0.1134283511645972  0.4983793179056736
  0.4998480172550491  0.9997621549576173  0.4977062607848326
  0.5565057134616270  0.1110362809850334  0.4976472390748007
  0.6662412075965952  0.9988489299144856  0.4983134764863232
  0.7216099044505613  0.1092434558344352  0.4975709603733025
  0.8322992574669054  0.9976878222123586  0.4983670561026340
  0.8868076877532121  0.1089221932561872  0.4977258344716143
  0.9984826953843821  0.1656150906614076  0.4978236481757271
  0.0541024539103687  0.2766025122863140  0.4984960206312540
  0.1672303861573990  0.1681203109212917  0.4983608818237486
  0.2229732050835057  0.2796887817330522  0.5000655067619089
  0.3354460855885673  0.1702678934217962  0.4994022598290749
  0.3909060758852811  0.2814461298446733  0.5025488279726089
  0.5016607274592619  0.1681513658478630  0.4983931723619275
  0.5570720175112964  0.2795844320208240  0.5000535494330355
  0.6672611744761963  0.1650250232595613  0.4975851884259374
  0.7228681513552659  0.2759800465920232  0.4980634967160840
  0.8314633855686168  0.1643401573135075  0.4976284355971277
  0.8872805981602780  0.2756398492970035  0.4977674184069055
  0.9985162776629932  0.3315192497039005  0.4983306285521423
  0.0541739632913034  0.4434379962053603  0.4987801407205634
  0.1653304261340925  0.3328571585273921  0.4999995404634104
  0.2191126674751221  0.4438330018328963  0.5017169588132895
  0.3353745899994410  0.3378669431931688  0.5034032150527630
  0.3875178873958963  0.4485960789985157  0.5093930876890551
  0.5028914544545402  0.3378656064922314  0.5036042802552414
  0.5613533405863484  0.4485584776525498  0.5097642320538137
  0.6675918105246808  0.3321872815508355  0.4996406810157780
  0.7248726119152621  0.4434679974170344  0.5011846087507411
  0.8334626196975758  0.3323793639470826  0.4979152304902252
  0.8895288153366482  0.4437082224881860  0.4982535694426569
  0.0000640708537689  0.4997382747670729  0.4982771174606741
  0.0557640988217760  0.6112173009583876  0.4982797808728544
  0.1643842519400502  0.4996203698318838  0.5003064784390320
  0.2203825328511899  0.6113515892994270  0.5003007293810240
  0.3290162476165532  0.4992993565420424  0.5052650766140352
  0.3854220433250661  0.6119789686476489  0.5052209585291655
  0.6706025774594865  0.4990926916482453  0.5051632418321137
  0.7268447558331224  0.6118487201037707  0.5051618246733234
  0.8353709002323727  0.4997321039632387  0.4995504752464799
  0.8911172184109787  0.6111866804011248  0.4995480690864472
  0.0012562411075752  0.6672219480286484  0.4982566651934363
  0.0567247759715526  0.7789746475319292  0.4979086355498839
  0.1663315993577478  0.6672937027825981  0.4987806470485629
  0.2226137884026761  0.7789636486356941  0.4983183885657130
  0.3311124673207974  0.6674832976124574  0.5016613377261245
  0.3885353989206453  0.7786704060162949  0.4999878761140890
  0.4946631607203762  0.6626979731444168  0.5094544384447119
  0.5532160650275962  0.7736136900855092  0.5033948007235290
  0.6682212006192212  0.6627504443551998  0.5098455619603691
  0.7204356637891404  0.7735815140728158  0.5035717583317448
  0.8364795968708962  0.6672155425944541  0.5011760248265569
  0.8903019760351142  0.7782854467628070  0.4996324782841900
  0.0013880331012142  0.8345014361280341  0.4980298753947895
  0.0567087118467041  0.9457940006740907  0.4975301497122340
  0.1676151375916566  0.8349173427662776  0.4977465923106362
  0.2233358469376718  0.9464006578661440  0.4976176856079204
  0.3333724314278916  0.8343951682948521  0.4984839459773790
  0.3893974001616366  0.9458077207267885  0.4978178888794786
  0.4997225064751794  0.8321039449275470  0.5000732641290299
  0.5556747000305307  0.9440881497584905  0.4983716897013806
  0.6648430617353055  0.8303505814419230  0.5025100621597633
  0.7208720065551220  0.9419315768970409  0.4994489425941642
  0.8326020392353289  0.8314316314687246  0.5000394675445253
  0.8883030718959292  0.9431665803651331  0.4983900861063622
  0.5277579029192305  0.5557107032431512  0.5547640770049291
 
  0.00000000E+00  0.00000000E+00  0.00000000E+00
  0.00000000E+00  0.00000000E+00  0.00000000E+00
  0.00000000E+00  0.00000000E+00  0.00000000E+00
  0.00000000E+00  0.00000000E+00  0.00000000E+00
  0.00000000E+00  0.00000000E+00  0.00000000E+00
  0.00000000E+00  0.00000000E+00  0.00000000E+00
  0.00000000E+00  0.00000000E+00  0.00000000E+00
  0.00000000E+00  0.00000000E+00  0.00000000E+00
  0.00000000E+00  0.00000000E+00  0.00000000E+00
  0.00000000E+00  0.00000000E+00  0.00000000E+00
  0.00000000E+00  0.00000000E+00  0.00000000E+00
  0.00000000E+00  0.00000000E+00  0.00000000E+00
  0.00000000E+00  0.00000000E+00  0.00000000E+00
  0.00000000E+00  0.00000000E+00  0.00000000E+00
  0.00000000E+00  0.00000000E+00  0.00000000E+00
  0.00000000E+00  0.00000000E+00  0.00000000E+00
  0.00000000E+00  0.00000000E+00  0.00000000E+00
  0.00000000E+00  0.00000000E+00  0.00000000E+00
  0.00000000E+00  0.00000000E+00  0.00000000E+00
  0.00000000E+00  0.00000000E+00  0.00000000E+00
  0.00000000E+00  0.00000000E+00  0.00000000E+00
  0.00000000E+00  0.00000000E+00  0.00000000E+00
  0.00000000E+00  0.00000000E+00  0.00000000E+00
  0.00000000E+00  0.00000000E+00  0.00000000E+00
  0.00000000E+00  0.00000000E+00  0.00000000E+00
  0.00000000E+00  0.00000000E+00  0.00000000E+00
  0.00000000E+00  0.00000000E+00  0.00000000E+00
  0.00000000E+00  0.00000000E+00  0.00000000E+00
  0.00000000E+00  0.00000000E+00  0.00000000E+00
  0.00000000E+00  0.00000000E+00  0.00000000E+00
  0.00000000E+00  0.00000000E+00  0.00000000E+00
  0.00000000E+00  0.00000000E+00  0.00000000E+00
  0.00000000E+00  0.00000000E+00  0.00000000E+00
  0.00000000E+00  0.00000000E+00  0.00000000E+00
  0.00000000E+00  0.00000000E+00  0.00000000E+00
  0.00000000E+00  0.00000000E+00  0.00000000E+00
  0.00000000E+00  0.00000000E+00  0.00000000E+00
  0.00000000E+00  0.00000000E+00  0.00000000E+00
  0.00000000E+00  0.00000000E+00  0.00000000E+00
  0.00000000E+00  0.00000000E+00  0.00000000E+00
  0.00000000E+00  0.00000000E+00  0.00000000E+00
  0.00000000E+00  0.00000000E+00  0.00000000E+00
  0.00000000E+00  0.00000000E+00  0.00000000E+00
  0.00000000E+00  0.00000000E+00  0.00000000E+00
  0.00000000E+00  0.00000000E+00  0.00000000E+00
  0.00000000E+00  0.00000000E+00  0.00000000E+00
  0.00000000E+00  0.00000000E+00  0.00000000E+00
  0.00000000E+00  0.00000000E+00  0.00000000E+00
  0.00000000E+00  0.00000000E+00  0.00000000E+00
  0.00000000E+00  0.00000000E+00  0.00000000E+00
  0.00000000E+00  0.00000000E+00  0.00000000E+00
  0.00000000E+00  0.00000000E+00  0.00000000E+00
  0.00000000E+00  0.00000000E+00  0.00000000E+00
  0.00000000E+00  0.00000000E+00  0.00000000E+00
  0.00000000E+00  0.00000000E+00  0.00000000E+00
  0.00000000E+00  0.00000000E+00  0.00000000E+00
  0.00000000E+00  0.00000000E+00  0.00000000E+00
  0.00000000E+00  0.00000000E+00  0.00000000E+00
  0.00000000E+00  0.00000000E+00  0.00000000E+00
  0.00000000E+00  0.00000000E+00  0.00000000E+00
  0.00000000E+00  0.00000000E+00  0.00000000E+00
  0.00000000E+00  0.00000000E+00  0.00000000E+00
  0.00000000E+00  0.00000000E+00  0.00000000E+00
  0.00000000E+00  0.00000000E+00  0.00000000E+00
  0.00000000E+00  0.00000000E+00  0.00000000E+00
  0.00000000E+00  0.00000000E+00  0.00000000E+00
  0.00000000E+00  0.00000000E+00  0.00000000E+00
  0.00000000E+00  0.00000000E+00  0.00000000E+00
  0.00000000E+00  0.00000000E+00  0.00000000E+00
  0.00000000E+00  0.00000000E+00  0.00000000E+00
  0.00000000E+00  0.00000000E+00  0.00000000E+00
