POSCAR-clean
1.0
14.8408194831 0.0016245415 0.0
-7.4204097415 12.7517140136 0.0
0.0 0.0 15.0
C N C Cr C O
21 1 48 1 1 1
Cartesian
7.4211079046 12.7512891279 7.2546016543
0.0009498365 1.4206671483 7.2558794555
2.47838996 0.0236557807 7.2516865934
2.4774154029 1.4447667765 7.2629063111
4.9496152737 0.0228718424 7.2528487326
4.9510258804 1.4458756147 7.2631169887
7.4288533415 0.0067263947 7.2558126967
7.4258001391 1.4339158054 7.2546273821
2.4706647405 12.7360550544 7.264212993
9.8934584951 1.4092295137 7.2534945868
4.9459172899 12.7275826983 7.2641685872
12.3648535228 1.3988511941 7.2535377586
13.5998555952 2.1164022869 7.2556204582
-1.2492639241 3.5314679825 7.2668377095
1.2381063808 2.1432325134 7.2658584094
1.2363527522 3.5657158218 7.2897055478
3.7146201104 2.1705001611 7.2788813678
3.7188659045 3.5864580346 7.3237859796
6.1855635936 2.1421946415 7.2637398356
6.2018061767 3.5638016331 7.2886096546
8.6644037591 2.1275841126 7.2545043219
8.6687398241 3.5320631148 7.2628512135
11.1351393503 2.1070467926 7.252214272
11.120311866 3.5246501977 7.2537341316
12.3553146261 4.241624255 7.2622575148
-2.4856421931 5.6598161318 7.2697536659
-0.0142678746 4.2463765338 7.2923073961
-0.0379497315 5.6612245081 7.3205519353
2.4751941311 4.3063875319 7.3340450161
2.429621939 5.7185132029 7.4204350975
4.9637262747 4.3107974758 7.3429020747
5.0001654725 5.7210656499 7.4426242254
7.4499855232 4.2403582196 7.2870757657
7.4709356237 5.6527036333 7.3103403328
9.889970496 4.2336566508 7.2583817198
9.8978725585 5.6521961368 7.2626998164
11.1302511555 6.3677136389 7.260400249
-3.7104392347 7.789344015 7.260315764
-1.2644057533 6.3743540989 7.2982168345
-1.2643044135 7.7943619549 7.297939544
1.1821306445 6.368093844 7.3672810388
1.1814256034 7.8037056231 7.3684872936
6.2479211009 6.3579982439 7.370297584
6.2443687062 7.7969085369 7.3674972617
8.6888978132 6.3775477047 7.284875584
8.6870818342 7.7929385424 7.2852831506
-4.932670357 8.5066143655 7.262688483
-4.939672223 9.9283556999 7.2571724186
-2.4835982863 8.5059945038 7.2690479677
-2.4766158488 9.9311683036 7.2613688593
-0.0366998418 8.5096707208 7.3210832074
-0.0123660746 9.9260292834 7.2928169241
2.4282066907 8.4557712225 7.4256387794
2.4698439218 9.8677853205 7.3351678115
4.9950055356 8.4417919247 7.4333477192
4.9507967302 9.8603632745 7.3386810873
7.4593317017 8.5065665148 7.3098176672
7.4355222772 9.9227830205 7.2861946362
-6.1733762261 10.636630459 7.2611817135
-6.1769354196 12.0569526286 7.2526428013
-3.7063393558 10.6426564446 7.2524590107
-3.7060606103 12.0640770683 7.2510414983
-1.242340995 10.6417670194 7.2664491135
-1.2370909275 12.0622037588 7.2551715945
1.2357547958 10.6081250018 7.2904871719
1.2372242929 12.0333084395 7.2663687482
3.7117671172 10.5880857512 7.3223891591
3.7094705446 12.008392726 7.27952017
6.1849012906 10.6024309267 7.289457945
6.1830118185 12.0276383321 7.265338144
3.6944406296 7.0867140346 8.1139748922
3.6944406296 7.0867140346 14.0939748922
3.373426683 6.3608703419 14.9393120759