POSCAR-clean
1.0
14.86155284633546 0.0031812625859325 0.0
-7.430776423117785 12.751325011494025 0.0
0.0 0.0 15.0
C N C Cr
46 1 23 1
Cartesian
-7.4266004526 12.7432978434 0.0015045371
0.0036540232 1.4168412438 0.0034703726
2.4810801511 0.0213999439 0.0003078173
2.4806456102 1.4453175358 0.0114569823
4.9508992206 0.0220287053 0.0025443105
4.9530303917 1.4455357408 0.0127945536
0.00010069 12.7516237997 0.003506937
7.4299368771 1.4237201233 0.0020984553
2.4804519876 12.7244778389 0.0114044526
9.9117709459 1.3964965345 0.0003513329
4.9568987456 12.7245033232 0.012646825
12.3861348918 1.3956560255 0.0025238523
13.6199661252 2.1142264969 0.0037550002
-1.2465020872 3.5331460778 0.0137939085
1.2407646371 2.143215022 0.0147582317
1.2394050209 3.5685348188 0.0401990204
3.7171516991 2.1694753729 0.0278648823
3.7177465055 3.5902428887 0.0726910723
6.1937144869 2.1481030874 0.0138157872
6.1959107499 3.5764011225 0.0394563526
8.6762974068 2.1161116387 0.0003511786
8.6789717202 3.5351023194 0.0077897611
11.1489153188 2.1074267715 0.0008183845
11.1493091991 3.5294454186 0.0023103452
12.3795816117 4.2454543698 0.0103846466
-2.488450477 5.6694214269 0.0171824641
-0.0133737959 4.2475515586 0.039843928
-0.0358479324 5.6628480518 0.0701410185
2.4778801109 4.3089047261 0.0838692086
2.441780693 5.7253184409 0.1689919669
4.9574272624 4.3185528721 0.090584355
4.9939542097 5.7363629831 0.1821965264
7.4496199934 4.2543550022 0.0333054106
7.4730328276 5.6736503967 0.0581629701
9.9155444574 4.2427223238 0.005025613
9.9212337382 5.6619554132 0.0104039541
11.1393328307 6.3865222523 0.0100720965
-3.7252070947 7.8032344861 0.0116607034
-1.2659032881 6.3760446334 0.0439247027
-1.2736293625 7.7949621304 0.0438964989
1.1872950531 6.3698189998 0.1209660474
1.1832455815 7.8018785839 0.1194713023
6.2530401452 6.3734674733 0.1171599884
6.2618912558 7.8010154462 0.1171154223
8.7086481697 6.3872222319 0.0323884755
8.7126270078 7.8046865817 0.0345789109
-4.9397623592 8.5073381828 0.013198161
-4.9461740795 9.9179041437 0.0063463072
-2.4984046469 8.5125478676 0.0184608663
-2.4788692874 9.934073376 0.0109324746
-0.0417951332 8.5083155562 0.068836688
-0.0144027086 9.9224114227 0.0391600573
2.4376523252 8.446779918 0.1675637511
2.4770461172 9.8608663764 0.0849006671
5.0027185942 8.4383807117 0.1816197059
4.9592114189 9.853606471 0.0911842302
7.4838687073 8.5129983982 0.05887935
7.4459849779 9.9259562267 0.0328963458
-6.1770454869 10.6250473846 0.0077444441
-6.1785721055 12.0491595462 0.0
-3.716507724 10.6318398054 0.0027413399
-3.7194736156 12.0587159763 0.0007704381
-1.2480854453 10.6387656622 0.0136405106
-1.2443999505 12.0594540396 0.0036761539
1.2374457233 10.6013143964 0.0402154482
1.2387754153 12.0264771167 0.0146476635
3.7188932835 10.5798132259 0.0741743077
3.7185632542 11.9999722229 0.0281546241
6.1978992854 10.5986954546 0.038571076
6.196601442 12.0261809456 0.0130471319
3.6928735595 7.0864742408 0.8630938532