POSCAR-clean
1.0
14.8649094068 0.0036276382 0.0
-7.4324547033 12.7489017343 0.0
0.0 0.0 15.0
C N C Cr C O
56 1 13 1 1 1
Cartesian
7.4336875767 12.74379115 7.2533079083
0.0011012427 1.4165729701 7.2553548176
2.4800152799 0.0208172956 7.2527262802
2.4811828024 1.4431375923 7.2634247469
4.9526615952 0.0262426039 7.2543662878
4.9545440407 1.4475499421 7.2649982716
0.0011773817 12.7498992511 7.255447946
7.4330995124 1.4256720784 7.2542302917
2.4850857606 12.7228320528 7.2635842499
9.9168056506 1.3957564855 7.2523823355
4.9591648631 12.7192288783 7.264693122
12.388402212 1.3933957421 7.2547666712
13.6230185017 2.1128657911 7.2555032877
-1.2468572913 3.5284856296 7.2660850474
1.2382329842 2.1394917372 7.2656757088
1.2365855326 3.5624366471 7.2899111861
3.7192576831 2.1712337896 7.2793234349
3.7212121677 3.5942657197 7.3239306113
6.1955527075 2.1500574589 7.2655397304
6.1969025599 3.5760353043 7.2892897141
8.6798743095 2.1147615476 7.2523858883
8.6836600882 3.5332592274 7.2600008
11.1513178595 2.1060940495 7.2528001134
11.1495684835 3.5301939718 7.2544871229
12.3815680425 4.2414897068 7.2623324601
-2.4898407704 5.6597096718 7.2691057385
-0.0150682447 4.243696729 7.2912987078
-0.0405357585 5.6611418533 7.3194773075
2.4752610176 4.3039023093 7.3365657338
2.4304185721 5.7138407519 7.4286220771
4.962486095 4.3271569339 7.3431058675
5.0114040048 5.7477211405 7.4430526196
7.4518841784 4.2495769861 7.2825564601
7.477521539 5.6652384226 7.302130123
9.9169869095 4.2451407764 7.2579903232
9.9229922692 5.6702468833 7.2634596359
11.1479650185 6.3781801404 7.2630364747
-3.7229624947 7.7940035597 7.2639644785
-1.2685839313 6.3741624673 7.2946362392
-1.2706720677 7.7942797982 7.2939735267
1.1808797444 6.3675966468 7.3694031403
1.1792874744 7.8006290945 7.3674763621
6.2719915136 6.3789875433 7.3658041865
6.274881349 7.8129994091 7.3743233222
8.6966346532 6.3875978367 7.2804955391
8.6948840966 7.8035556221 7.2807400051
-4.9504812972 8.5121727064 7.2653176544
-4.9437644176 9.9299825588 7.2601543139
-2.4942057755 8.50851158 7.2697553139
-2.4834902598 9.9290196182 7.2624054974
-0.0420838853 8.5065394545 7.3168690886
-0.015015297 9.9224841877 7.2901786341
2.4288850485 8.4534315351 7.4249661649
2.4766896041 9.8612096382 7.3382310878
5.0270921859 8.4413757653 7.4578984199
4.9625643776 9.8534590497 7.3449381542
7.4791192411 8.5058628607 7.3006245856
7.4533638099 9.909978016 7.2802629241
-6.1844095758 10.6240808166 7.2617647256
-6.1910113613 12.0473611674 7.2532518973
-3.7159301999 10.6415898962 7.2550028917
-3.7158331573 12.0641846457 7.2526306397
-1.2477551597 10.6379541233 7.2656736985
-1.2432170907 12.0568065882 7.2556003734
1.2376491806 10.603404147 7.2906604806
1.2399956956 12.0258681619 7.2661210831
3.7241045145 10.5750622291 7.3255759849
3.7222780376 11.998282998 7.279321752
6.2030338349 10.5859890726 7.2834462161
6.2030820064 12.0162495276 7.2624006029
3.6799257828 7.0838518664 8.111281577
3.6799257828 7.0838518664 14.091281577
3.3589118362 6.3580081737 14.9366187607