POSCAR-clean                            
   1.00000000000000     
    14.8601789037430319   -0.0031452180979795    0.0000000000000000
    -7.4300894518215781   12.7501479922096905    0.0000000000000000
     0.0000000000000000    0.0000000000000000   15.0000000000000000
   C    N    C    Cr
    32     1    37     1
Direct
 -0.0000965001053001  0.9996978906272032  0.4976808554773235
  0.0557656465534391  0.1113294823453454  0.4977904611856330
  0.1680388593905939  0.0019577179382659  0.4975479473159009
  0.2238019450681839  0.1133923523311357  0.4983043312725252
  0.3346795687079998  0.0023907204095612  0.4976969815385847
  0.3906301684569080  0.1139937327345637  0.4983522818216069
  0.5001847967429721  0.0001271392791467  0.4978225749794606
  0.5557983575771996  0.1114230037793774  0.4977088453559058
  0.6659144926881487  0.9983215699610326  0.4983292449724361
  0.7216742825992334  0.1099854575387229  0.4975942157800508
  0.8322899513424152  0.9979296340029186  0.4984409644868621
  0.8878554548261138  0.1093124044224652  0.4976785920037856
  0.9991912525531909  0.1656088221573108  0.4977708525744041
  0.0544561479812244  0.2768404380966455  0.4984833309906585
  0.1675996398789721  0.1681575130119407  0.4984477652720073
  0.2234405243466158  0.2796902016946110  0.4999643890974714
  0.3355742008066492  0.1702494719403329  0.4993274161698112
  0.3917234494165474  0.2814905682897067  0.5022257949168060
  0.5020462192318207  0.1689655303097587  0.4981928193325399
  0.5580348102657040  0.2803557055948686  0.4995311863419118
  0.6663748899831343  0.1664229183964000  0.4977223550820278
  0.7219755995944195  0.2774447148880497  0.4984078521078711
  0.8324558756771085  0.1651575333970743  0.4975722885013808
  0.8876242284833200  0.2764019516595895  0.4977302617969255
  0.9988351309783616  0.3323646186768203  0.4982187552365234
  0.0544365032424748  0.4437635899611271  0.4987031049523817
  0.1655980915910615  0.3329260366625989  0.5001075548578062
  0.2194816514125053  0.4439788843564805  0.5019012965676264
  0.3361982699340198  0.3378782934861941  0.5030774307864885
  0.3883042776394452  0.4485844605256709  0.5091709963737859
  0.5040615578019972  0.3386621707140784  0.5036454619372943
  0.5611654795069867  0.4493512766116887  0.5117772048548404
  0.6677433510345426  0.3328894749356187  0.4996531047486378
  0.7242018254188519  0.4429440631202012  0.5006259676567838
  0.8326655771375109  0.3326486050173101  0.4980981014787377
  0.8897389828105757  0.4439637904778089  0.4983108729099850
 -0.0000560949873623  0.4998047575930318  0.4982079200959769
  0.0556615098566357  0.6113200692220501  0.4981752161222122
  0.1647155024810401  0.4998395187500629  0.5004260404968530
  0.2204089105340934  0.6113054253116175  0.5004943276124171
  0.3293817757127436  0.4994143941980482  0.5051087691918357
  0.3855149021264354  0.6117822728487322  0.5050677820773806
  0.6704967860675762  0.4982402960978921  0.5048935945654510
  0.7266348966607596  0.6107242569956801  0.5047721392092158
  0.8348672948465999  0.4989004398613595  0.4993995374095306
  0.8904406238452804  0.6105278098564523  0.4995333694848333
  0.0009964759707519  0.6669185620971199  0.4982592585645949
  0.0564694767471342  0.7786032082459748  0.4979082907978731
  0.1662470850800556  0.6673931643112623  0.4986846794173715
  0.2223956217482359  0.7788968368414072  0.4982099850612391
  0.3310095371019229  0.6672808486140444  0.5020515736919137
  0.3882202998808513  0.7784094115707153  0.5001807955107599
  0.4951408959104124  0.6630068729210830  0.5088277334647944
  0.5534048145876724  0.7736849132335621  0.5028706977381323
  0.6671101104147229  0.6608968650639487  0.5099896070780160
  0.7198176223985315  0.7722171067531379  0.5036055307570595
  0.8362051281444213  0.6666861576869838  0.5010223833883980
  0.8901493201336150  0.7779102291171051  0.4997545241888934
  0.0011968003736621  0.8342382028384194  0.4981317991130551
  0.0565909315637157  0.9455056493832530  0.4975496707687293
  0.1674816880488176  0.8347462159134177  0.4976623301326273
  0.2234034727433062  0.9463994329592491  0.4975807990699455
  0.3334165302845073  0.8345924796865503  0.4984962934195596
  0.3892818604136170  0.9458055339521597  0.4977690661256873
  0.4992079449971900  0.8318340522327095  0.4999260567520836
  0.5551011614648163  0.9434139678676087  0.4984765136325336
  0.6650562504468465  0.8296566190668607  0.5023056634467680
  0.7206549401638310  0.9411609179369856  0.4994572859765991
  0.8323503615655361  0.8309408572830155  0.5000609284608122
  0.8882287232051228  0.9428334817813040  0.4984446368140906
  0.5255524400088888  0.5557273346851300  0.5557417186412578
 
  0.00000000E+00  0.00000000E+00  0.00000000E+00
  0.00000000E+00  0.00000000E+00  0.00000000E+00
  0.00000000E+00  0.00000000E+00  0.00000000E+00
  0.00000000E+00  0.00000000E+00  0.00000000E+00
  0.00000000E+00  0.00000000E+00  0.00000000E+00
  0.00000000E+00  0.00000000E+00  0.00000000E+00
  0.00000000E+00  0.00000000E+00  0.00000000E+00
  0.00000000E+00  0.00000000E+00  0.00000000E+00
  0.00000000E+00  0.00000000E+00  0.00000000E+00
  0.00000000E+00  0.00000000E+00  0.00000000E+00
  0.00000000E+00  0.00000000E+00  0.00000000E+00
  0.00000000E+00  0.00000000E+00  0.00000000E+00
  0.00000000E+00  0.00000000E+00  0.00000000E+00
  0.00000000E+00  0.00000000E+00  0.00000000E+00
  0.00000000E+00  0.00000000E+00  0.00000000E+00
  0.00000000E+00  0.00000000E+00  0.00000000E+00
  0.00000000E+00  0.00000000E+00  0.00000000E+00
  0.00000000E+00  0.00000000E+00  0.00000000E+00
  0.00000000E+00  0.00000000E+00  0.00000000E+00
  0.00000000E+00  0.00000000E+00  0.00000000E+00
  0.00000000E+00  0.00000000E+00  0.00000000E+00
  0.00000000E+00  0.00000000E+00  0.00000000E+00
  0.00000000E+00  0.00000000E+00  0.00000000E+00
  0.00000000E+00  0.00000000E+00  0.00000000E+00
  0.00000000E+00  0.00000000E+00  0.00000000E+00
  0.00000000E+00  0.00000000E+00  0.00000000E+00
  0.00000000E+00  0.00000000E+00  0.00000000E+00
  0.00000000E+00  0.00000000E+00  0.00000000E+00
  0.00000000E+00  0.00000000E+00  0.00000000E+00
  0.00000000E+00  0.00000000E+00  0.00000000E+00
  0.00000000E+00  0.00000000E+00  0.00000000E+00
  0.00000000E+00  0.00000000E+00  0.00000000E+00
  0.00000000E+00  0.00000000E+00  0.00000000E+00
  0.00000000E+00  0.00000000E+00  0.00000000E+00
  0.00000000E+00  0.00000000E+00  0.00000000E+00
  0.00000000E+00  0.00000000E+00  0.00000000E+00
  0.00000000E+00  0.00000000E+00  0.00000000E+00
  0.00000000E+00  0.00000000E+00  0.00000000E+00
  0.00000000E+00  0.00000000E+00  0.00000000E+00
  0.00000000E+00  0.00000000E+00  0.00000000E+00
  0.00000000E+00  0.00000000E+00  0.00000000E+00
  0.00000000E+00  0.00000000E+00  0.00000000E+00
  0.00000000E+00  0.00000000E+00  0.00000000E+00
  0.00000000E+00  0.00000000E+00  0.00000000E+00
  0.00000000E+00  0.00000000E+00  0.00000000E+00
  0.00000000E+00  0.00000000E+00  0.00000000E+00
  0.00000000E+00  0.00000000E+00  0.00000000E+00
  0.00000000E+00  0.00000000E+00  0.00000000E+00
  0.00000000E+00  0.00000000E+00  0.00000000E+00
  0.00000000E+00  0.00000000E+00  0.00000000E+00
  0.00000000E+00  0.00000000E+00  0.00000000E+00
  0.00000000E+00  0.00000000E+00  0.00000000E+00
  0.00000000E+00  0.00000000E+00  0.00000000E+00
  0.00000000E+00  0.00000000E+00  0.00000000E+00
  0.00000000E+00  0.00000000E+00  0.00000000E+00
  0.00000000E+00  0.00000000E+00  0.00000000E+00
  0.00000000E+00  0.00000000E+00  0.00000000E+00
  0.00000000E+00  0.00000000E+00  0.00000000E+00
  0.00000000E+00  0.00000000E+00  0.00000000E+00
  0.00000000E+00  0.00000000E+00  0.00000000E+00
  0.00000000E+00  0.00000000E+00  0.00000000E+00
  0.00000000E+00  0.00000000E+00  0.00000000E+00
  0.00000000E+00  0.00000000E+00  0.00000000E+00
  0.00000000E+00  0.00000000E+00  0.00000000E+00
  0.00000000E+00  0.00000000E+00  0.00000000E+00
  0.00000000E+00  0.00000000E+00  0.00000000E+00
  0.00000000E+00  0.00000000E+00  0.00000000E+00
  0.00000000E+00  0.00000000E+00  0.00000000E+00
  0.00000000E+00  0.00000000E+00  0.00000000E+00
  0.00000000E+00  0.00000000E+00  0.00000000E+00
  0.00000000E+00  0.00000000E+00  0.00000000E+00
