POSCAR-clean                            
   1.00000000000000     
    14.8611638413693825   -0.0032735932060556    0.0000000000000000
    -7.4305819206347490   12.7543763650500477    0.0000000000000000
     0.0000000000000000    0.0000000000000000   15.0000000000000000
   C    N    C    Cr
    48     1    21     1
Direct
  0.0002034826036821  0.9998859463770188  0.4976473960059209
  0.0559285196669140  0.1114165626951756  0.4977186972321466
  0.1679907489076929  0.0016287606416201  0.4975473702358538
  0.2235647636468621  0.1132011158084842  0.4982613129860928
  0.3341171793888035  0.0016431189622335  0.4977500236307498
  0.3900325490722129  0.1132635567446691  0.4983943547774981
  0.4995922219086814  0.9994348111233055  0.4977162271480172
  0.5556019679368994  0.1111045447434589  0.4976541996361806
  0.6655868679083108  0.9977522509686297  0.4982670889193546
  0.7214876612428538  0.1092450728237226  0.4975470121555366
  0.8322835531876305  0.9977759465076677  0.4983831626716286
  0.8879571188743254  0.1093224759147528  0.4977450845384883
  0.9992194012982227  0.1656754823144996  0.4978255483211261
  0.0545735979419742  0.2769089402378850  0.4985038371833602
  0.1674376871551086  0.1681207261365960  0.4983565903001338
  0.2230926179427298  0.2799838046680978  0.5000665023149403
  0.3352233689972170  0.1701162023692314  0.4993980761259368
  0.3908821018492735  0.2814457020800221  0.5024569118836804
  0.5008278174933897  0.1679702543255748  0.4984369656497797
  0.5568714276397795  0.2796618474110057  0.5000670017388943
  0.6666208465166820  0.1654894851134303  0.4975247257069344
  0.7227806171166830  0.2769578323692788  0.4980265986764305
  0.8325829466093462  0.1650266699366643  0.4976194057917804
  0.8882779954721709  0.2764826050160130  0.4977570256903204
  0.9992046683620983  0.3324528759600770  0.4983141067361598
  0.0544091684308807  0.4437007024937100  0.4987489900550108
  0.1654797660174979  0.3333605541567621  0.5000129240018100
  0.2193679079053537  0.4446867506244563  0.5016765468299855
  0.3354163946917257  0.3380898859250402  0.5033992942465623
  0.3876707404441141  0.4489030562006305  0.5095538567332483
  0.5027038517448421  0.3377604354458448  0.5034931015735391
  0.5612480706013230  0.4486039837600391  0.5097131348523961
  0.6678134967214624  0.3329713195204808  0.4996628634132952
  0.7250300620934124  0.4439751956899392  0.5012572265345118
  0.8336999947680601  0.3326633218632308  0.4979093639601859
  0.8901478686171945  0.4445675771252781  0.4982615249541746
  0.0010358748159436  0.5006210075113213  0.4982896708889796
  0.0569024750843920  0.6119404772440451  0.4983220215970627
  0.1643584529606017  0.5006877935213893  0.5002758434650855
  0.2196892586837268  0.6118705095562647  0.5003505742993879
  0.3287819616261571  0.4994985297129023  0.5052455619084116
  0.3842966760591575  0.6117095616291413  0.5052326413350461
  0.6706051841802968  0.4993358454945704  0.5052668392223384
  0.7271550024369333  0.6118784049674629  0.5052417799146919
  0.8357274252408450  0.5000043875204548  0.4995611329077838
  0.8918776905923395  0.6112406071378814  0.4995645719853060
  0.0023126173587753  0.6676358260626638  0.4983024809196477
  0.0566676372560226  0.7790805313093460  0.4979233343210966
  0.1661641119555073  0.6672542491477422  0.4988102809908748
  0.2219198862473224  0.7778484111959697  0.4983177966070571
  0.3301213773546832  0.6675449101344834  0.5016684922008745
  0.3882651966621125  0.7783393587408524  0.4999698264354790
  0.4938304105545636  0.6623601412223800  0.5095230732616378
  0.5527845670428646  0.7729945351901161  0.5034191914931342
  0.6684958816944676  0.6625759702301324  0.5096589543360454
  0.7204859928218258  0.7732443827700647  0.5035264055445433
  0.8370542108491709  0.6672363207043090  0.5012262211722008
  0.8904499726190983  0.7781543111925739  0.4996312422803028
  0.0015529296415448  0.8343848249381426  0.4980208916831305
  0.0569096120779632  0.9457178454298923  0.4975269083223866
  0.1672277667807947  0.8338368900679399  0.4977522347931271
  0.2233674187610834  0.9456357342748817  0.4976225592324806
  0.3324547058548039  0.8333734934080557  0.4984881977724606
  0.3884154275141453  0.9449926109143455  0.4978312931102318
  0.4986844266841993  0.8313277223840958  0.5000268257201759
  0.5547782431489015  0.9431266711280435  0.4983537529969972
  0.6648706810512278  0.8295851217230359  0.5025065005861582
  0.7205143047373799  0.9408741434690653  0.4994020691025624
  0.8328551996839343  0.8314231108389522  0.5000485379603773
  0.8885057698082224  0.9430893551776539  0.4984251306740365
  0.5281727605005014  0.5555469321248351  0.5546530867604991
 
  0.00000000E+00  0.00000000E+00  0.00000000E+00
  0.00000000E+00  0.00000000E+00  0.00000000E+00
  0.00000000E+00  0.00000000E+00  0.00000000E+00
  0.00000000E+00  0.00000000E+00  0.00000000E+00
  0.00000000E+00  0.00000000E+00  0.00000000E+00
  0.00000000E+00  0.00000000E+00  0.00000000E+00
  0.00000000E+00  0.00000000E+00  0.00000000E+00
  0.00000000E+00  0.00000000E+00  0.00000000E+00
  0.00000000E+00  0.00000000E+00  0.00000000E+00
  0.00000000E+00  0.00000000E+00  0.00000000E+00
  0.00000000E+00  0.00000000E+00  0.00000000E+00
  0.00000000E+00  0.00000000E+00  0.00000000E+00
  0.00000000E+00  0.00000000E+00  0.00000000E+00
  0.00000000E+00  0.00000000E+00  0.00000000E+00
  0.00000000E+00  0.00000000E+00  0.00000000E+00
  0.00000000E+00  0.00000000E+00  0.00000000E+00
  0.00000000E+00  0.00000000E+00  0.00000000E+00
  0.00000000E+00  0.00000000E+00  0.00000000E+00
  0.00000000E+00  0.00000000E+00  0.00000000E+00
  0.00000000E+00  0.00000000E+00  0.00000000E+00
  0.00000000E+00  0.00000000E+00  0.00000000E+00
  0.00000000E+00  0.00000000E+00  0.00000000E+00
  0.00000000E+00  0.00000000E+00  0.00000000E+00
  0.00000000E+00  0.00000000E+00  0.00000000E+00
  0.00000000E+00  0.00000000E+00  0.00000000E+00
  0.00000000E+00  0.00000000E+00  0.00000000E+00
  0.00000000E+00  0.00000000E+00  0.00000000E+00
  0.00000000E+00  0.00000000E+00  0.00000000E+00
  0.00000000E+00  0.00000000E+00  0.00000000E+00
  0.00000000E+00  0.00000000E+00  0.00000000E+00
  0.00000000E+00  0.00000000E+00  0.00000000E+00
  0.00000000E+00  0.00000000E+00  0.00000000E+00
  0.00000000E+00  0.00000000E+00  0.00000000E+00
  0.00000000E+00  0.00000000E+00  0.00000000E+00
  0.00000000E+00  0.00000000E+00  0.00000000E+00
  0.00000000E+00  0.00000000E+00  0.00000000E+00
  0.00000000E+00  0.00000000E+00  0.00000000E+00
  0.00000000E+00  0.00000000E+00  0.00000000E+00
  0.00000000E+00  0.00000000E+00  0.00000000E+00
  0.00000000E+00  0.00000000E+00  0.00000000E+00
  0.00000000E+00  0.00000000E+00  0.00000000E+00
  0.00000000E+00  0.00000000E+00  0.00000000E+00
  0.00000000E+00  0.00000000E+00  0.00000000E+00
  0.00000000E+00  0.00000000E+00  0.00000000E+00
  0.00000000E+00  0.00000000E+00  0.00000000E+00
  0.00000000E+00  0.00000000E+00  0.00000000E+00
  0.00000000E+00  0.00000000E+00  0.00000000E+00
  0.00000000E+00  0.00000000E+00  0.00000000E+00
  0.00000000E+00  0.00000000E+00  0.00000000E+00
  0.00000000E+00  0.00000000E+00  0.00000000E+00
  0.00000000E+00  0.00000000E+00  0.00000000E+00
  0.00000000E+00  0.00000000E+00  0.00000000E+00
  0.00000000E+00  0.00000000E+00  0.00000000E+00
  0.00000000E+00  0.00000000E+00  0.00000000E+00
  0.00000000E+00  0.00000000E+00  0.00000000E+00
  0.00000000E+00  0.00000000E+00  0.00000000E+00
  0.00000000E+00  0.00000000E+00  0.00000000E+00
  0.00000000E+00  0.00000000E+00  0.00000000E+00
  0.00000000E+00  0.00000000E+00  0.00000000E+00
  0.00000000E+00  0.00000000E+00  0.00000000E+00
  0.00000000E+00  0.00000000E+00  0.00000000E+00
  0.00000000E+00  0.00000000E+00  0.00000000E+00
  0.00000000E+00  0.00000000E+00  0.00000000E+00
  0.00000000E+00  0.00000000E+00  0.00000000E+00
  0.00000000E+00  0.00000000E+00  0.00000000E+00
  0.00000000E+00  0.00000000E+00  0.00000000E+00
  0.00000000E+00  0.00000000E+00  0.00000000E+00
  0.00000000E+00  0.00000000E+00  0.00000000E+00
  0.00000000E+00  0.00000000E+00  0.00000000E+00
  0.00000000E+00  0.00000000E+00  0.00000000E+00
  0.00000000E+00  0.00000000E+00  0.00000000E+00
