POSCAR-c3n4                             
  0.93999999999999995     
    13.8434242346000005   -0.1907404740000000    0.0000000000000000
    -6.9217121174000003   11.6951909939000007    0.0000000000000000
     0.0000000000000000    0.0000000000000000   15.0000000000000000
   C    N    Ge   C    O 
    24    32     1     1     1
Direct
  0.1021682069314949  0.2090191183495946  0.4175805211525301
  0.2910915952290480  0.4075675633818250  0.4347523489581704
  0.1002905715239990  0.3919146787063426  0.4176692169820555
  0.4483308445677423  0.0633679021750098  0.5157649633396559
  0.4710494324683623  0.4305227902441686  0.4076813270844681
  0.1155607123826385  0.0524842692364800  0.4645605275421900
  0.0746426448017132  0.7017195352295218  0.5122670024387688
  0.2791330939099339  0.8779987130362699  0.5328244786901308
  0.1141845156570369  0.9010328389081081  0.5404829551242898
  0.4465108898177377  0.5434879810981528  0.5347718309685092
  0.4442391232511937  0.8723501092470940  0.5080989285141868
  0.0593195170911187  0.5232978392092278  0.4916994426537542
  0.6248205746738762  0.2239991868804694  0.4659262361723790
  0.7763646734797049  0.3940132603164699  0.3622090315631397
  0.6228787768652779  0.4042845700575270  0.4338840226270406
  0.9342690824122357  0.0508400060414473  0.4789149625798288
  0.9434429123097701  0.3961259129987837  0.3604506975555353
  0.6316527757027686  0.0663178401911537  0.5264174336288860
  0.6161252312947667  0.7013658173753470  0.5919840005013270
  0.7953533479320853  0.9038487493341378  0.5743435404579600
  0.6086096870891922  0.8858256462034220  0.5660129128547453
  0.9280239052568433  0.5716789025756341  0.4107294557946375
  0.9762644591045131  0.9359168009655221  0.5924364256118793
  0.6311315935177504  0.5505126885909633  0.5253226727872615
  0.1665047170931260  0.3352038864502944  0.4174977961971607
  0.1650785217216963  0.1537675842129289  0.4138227454169225
  0.3368073915192937  0.9989146489611329  0.5493817898442046
  0.5354119592736311  0.3855175135194102  0.3756491450500334
  0.3597300839414714  0.3889716813035022  0.3777985887816229
  0.5089717416051371  0.1804853193779437  0.4933403539126786
  0.1526113472083139  0.9744565323042167  0.4658377386617900
  0.0139145788769710  0.0213899556021673  0.5204040396293834
  0.1559914359561390  0.8202090732301954  0.5435515431574132
  0.0957418338330172  0.6175984741205980  0.5492500846735524
  0.3276328687825725  0.4847250049938978  0.5128216148920473
  0.5036369123551054  0.8151037652658246  0.5219816067337177
  0.3242509501913347  0.8092357096933895  0.5056573096197070
  0.4932171696373615  0.6307983189113386  0.5994356285109745
  0.1169157187083201  0.4620569636065994  0.4957606171409026
  0.9766271096293337  0.4957414918371867  0.4242454853380693
  0.6730374980800775  0.3310672447597298  0.4126122628084516
  0.6945302083683771  0.1814795566265985  0.4962879272931033
  0.8181963750711105  0.9701871549940648  0.4951784605062386
  0.0240224532559665  0.3630823282843565  0.3475946337086384
  0.8326063770655452  0.3378020684846277  0.3295181160466427
  0.9810615352413237  0.1517065441060410  0.4275263795868014
  0.6710435076924171  0.0074891397396044  0.5783872572057405
  0.5073046569774107  0.9975441503760507  0.5035619439544519
  0.6698842912932435  0.8283313920995639  0.5959989108050081
  0.6854468197885595  0.6558900794912716  0.5726112565023982
  0.8266596494293097  0.5205840756025211  0.3640052432501122
  0.0408990845952957  0.8854693907446460  0.6118284685962010
  0.8689449312781434  0.8939115127085770  0.6330727304910724
  0.9936059404648461  0.6860646267021409  0.4472798060126095
  0.6753706323926707  0.4804868933396946  0.5075021657224923
  0.5164245062948964  0.5121098374660349  0.4856109100896973
  0.2624274549320376  0.5761125846448749  0.5891838366691999
  0.2766707218605831  0.5920236761219826  0.8149557919986492
  0.2234821299075236  0.5003116116095683  0.8540628754823203

  0.00000000E+00  0.00000000E+00  0.00000000E+00
  0.00000000E+00  0.00000000E+00  0.00000000E+00
  0.00000000E+00  0.00000000E+00  0.00000000E+00
  0.00000000E+00  0.00000000E+00  0.00000000E+00
  0.00000000E+00  0.00000000E+00  0.00000000E+00
  0.00000000E+00  0.00000000E+00  0.00000000E+00
  0.00000000E+00  0.00000000E+00  0.00000000E+00
  0.00000000E+00  0.00000000E+00  0.00000000E+00
  0.00000000E+00  0.00000000E+00  0.00000000E+00
  0.00000000E+00  0.00000000E+00  0.00000000E+00
  0.00000000E+00  0.00000000E+00  0.00000000E+00
  0.00000000E+00  0.00000000E+00  0.00000000E+00
  0.00000000E+00  0.00000000E+00  0.00000000E+00
  0.00000000E+00  0.00000000E+00  0.00000000E+00
  0.00000000E+00  0.00000000E+00  0.00000000E+00
  0.00000000E+00  0.00000000E+00  0.00000000E+00
  0.00000000E+00  0.00000000E+00  0.00000000E+00
  0.00000000E+00  0.00000000E+00  0.00000000E+00
  0.00000000E+00  0.00000000E+00  0.00000000E+00
  0.00000000E+00  0.00000000E+00  0.00000000E+00
  0.00000000E+00  0.00000000E+00  0.00000000E+00
  0.00000000E+00  0.00000000E+00  0.00000000E+00
  0.00000000E+00  0.00000000E+00  0.00000000E+00
  0.00000000E+00  0.00000000E+00  0.00000000E+00
  0.00000000E+00  0.00000000E+00  0.00000000E+00
  0.00000000E+00  0.00000000E+00  0.00000000E+00
  0.00000000E+00  0.00000000E+00  0.00000000E+00
  0.00000000E+00  0.00000000E+00  0.00000000E+00
  0.00000000E+00  0.00000000E+00  0.00000000E+00
  0.00000000E+00  0.00000000E+00  0.00000000E+00
  0.00000000E+00  0.00000000E+00  0.00000000E+00
  0.00000000E+00  0.00000000E+00  0.00000000E+00
  0.00000000E+00  0.00000000E+00  0.00000000E+00
  0.00000000E+00  0.00000000E+00  0.00000000E+00
  0.00000000E+00  0.00000000E+00  0.00000000E+00
  0.00000000E+00  0.00000000E+00  0.00000000E+00
  0.00000000E+00  0.00000000E+00  0.00000000E+00
  0.00000000E+00  0.00000000E+00  0.00000000E+00
  0.00000000E+00  0.00000000E+00  0.00000000E+00
  0.00000000E+00  0.00000000E+00  0.00000000E+00
  0.00000000E+00  0.00000000E+00  0.00000000E+00
  0.00000000E+00  0.00000000E+00  0.00000000E+00
  0.00000000E+00  0.00000000E+00  0.00000000E+00
  0.00000000E+00  0.00000000E+00  0.00000000E+00
  0.00000000E+00  0.00000000E+00  0.00000000E+00
  0.00000000E+00  0.00000000E+00  0.00000000E+00
  0.00000000E+00  0.00000000E+00  0.00000000E+00
  0.00000000E+00  0.00000000E+00  0.00000000E+00
  0.00000000E+00  0.00000000E+00  0.00000000E+00
  0.00000000E+00  0.00000000E+00  0.00000000E+00
  0.00000000E+00  0.00000000E+00  0.00000000E+00
  0.00000000E+00  0.00000000E+00  0.00000000E+00
  0.00000000E+00  0.00000000E+00  0.00000000E+00
  0.00000000E+00  0.00000000E+00  0.00000000E+00
  0.00000000E+00  0.00000000E+00  0.00000000E+00
  0.00000000E+00  0.00000000E+00  0.00000000E+00
  0.00000000E+00  0.00000000E+00  0.00000000E+00
  0.00000000E+00  0.00000000E+00  0.00000000E+00
  0.00000000E+00  0.00000000E+00  0.00000000E+00
