POSCAR-c3n4                             
  0.93999999999999995     
    13.8434242346000005   -0.1907404740000000    0.0000000000000000
    -6.9217121174000003   11.6951909939000007    0.0000000000000000
     0.0000000000000000    0.0000000000000000   15.0000000000000000
   C    N    Ge   C    O 
    24    32     1     1     1
Direct
  0.1021682069314942  0.2090191183495965  0.4175805211525301
  0.2910915952290494  0.4075675633818274  0.4347523489581729
  0.1002905715239957  0.3919146787063415  0.4176692169820564
  0.4483308445677446  0.0633679021750077  0.5157649633396550
  0.4710494324683646  0.4305227902441665  0.4076813270844677
  0.1155607123826404  0.0524842692364771  0.4645605275421925
  0.0746426448017167  0.7017195352295202  0.5122670024387718
  0.2791330939099363  0.8779987130362713  0.5328244786901292
  0.1141845156570397  0.9010328389081056  0.5404829551242866
  0.4465108898177379  0.5434879810981497  0.5347718309685080
  0.4442391232511969  0.8723501092470953  0.5080989285141896
  0.0593195170911211  0.5232978392092249  0.4916994426537508
  0.6248205746738785  0.2239991868804722  0.4659262361723812
  0.7763646734797063  0.3940132603164730  0.3622090315631417
  0.6228787768652748  0.4042845700575289  0.4338840226270440
  0.9342690824122377  0.0508400060414496  0.4789149625798277
  0.9434429123097733  0.3961259129987840  0.3604506975555369
  0.6316527757027676  0.0663178401911558  0.5264174336288873
  0.6161252312947688  0.7013658173753488  0.5919840005013258
  0.7953533479320866  0.9038487493341376  0.5743435404579620
  0.6086096870891894  0.8858256462034192  0.5660129128547444
  0.9280239052568420  0.5716789025756314  0.4107294557946398
  0.9762644591045149  0.9359168009655252  0.5924364256118787
  0.6311315935177538  0.5505126885909599  0.5253226727872610
  0.1665047170931243  0.3352038864502979  0.4174977961971635
  0.1650785217216937  0.1537675842129276  0.4138227454169208
  0.3368073915192906 -0.0010853510388659  0.5493817898442047
  0.5354119592736278  0.3855175135194096  0.3756491450500364
  0.3597300839414747  0.3889716813035030  0.3777985887816249
  0.5089717416051344  0.1804853193779415  0.4933403539126760
  0.1526113472083160  0.9744565323042146  0.4658377386617881
  0.0139145788769740  0.0213899556021639  0.5204040396293819
  0.1559914359561381  0.8202090732301922  0.5435515431574158
  0.0957418338330141  0.6175984741206014  0.5492500846735524
  0.3276328687825724  0.4847250049938995  0.5128216148920481
  0.5036369123551048  0.8151037652658261  0.5219816067337175
  0.3242509501913345  0.8092357096933868  0.5056573096197097
  0.4932171696373634  0.6307983189113406  0.5994356285109779
  0.1169157187083170  0.4620569636065975  0.4957606171409051
  0.9766271096293346  0.4957414918371858  0.4242454853380727
  0.6730374980800793  0.3310672447597318  0.4126122628084530
  0.6945302083683789  0.1814795566266011  0.4962879272931006
  0.8181963750711112  0.9701871549940650  0.4951784605062403
  0.0240224532559666  0.3630823282843580  0.3475946337086369
  0.8326063770655477  0.3378020684846252  0.3295181160466426
  0.9810615352413233  0.1517065441060383  0.4275263795867987
  0.6710435076924159  0.0074891397396049  0.5783872572057384
  0.5073046569774116 -0.0024558496239463  0.5035619439544534
  0.6698842912932449  0.8283313920995653  0.5959989108050093
  0.6854468197885611  0.6558900794912711  0.5726112565023980
  0.8266596494293066  0.5205840756025182  0.3640052432501106
  0.0408990845952954  0.8854693907446491  0.6118284685962002
  0.8689449312781437  0.8939115127085798  0.6330727304910694
 -0.0063940595351511  0.6860646267021426  0.4472798060126070
  0.6753706323926710  0.4804868933396977  0.5075021657224897
  0.5164245062948987  0.5121098374660333  0.4856109100897005
  0.2624274549320395  0.5761125846448715  0.5891838366691994
  0.2766707218605802  0.5920236761219855  0.8149557919986515
  0.2234821299075218  0.5003116116095707  0.8540628754823187

  0.00000000E+00  0.00000000E+00  0.00000000E+00
  0.00000000E+00  0.00000000E+00  0.00000000E+00
  0.00000000E+00  0.00000000E+00  0.00000000E+00
  0.00000000E+00  0.00000000E+00  0.00000000E+00
  0.00000000E+00  0.00000000E+00  0.00000000E+00
  0.00000000E+00  0.00000000E+00  0.00000000E+00
  0.00000000E+00  0.00000000E+00  0.00000000E+00
  0.00000000E+00  0.00000000E+00  0.00000000E+00
  0.00000000E+00  0.00000000E+00  0.00000000E+00
  0.00000000E+00  0.00000000E+00  0.00000000E+00
  0.00000000E+00  0.00000000E+00  0.00000000E+00
  0.00000000E+00  0.00000000E+00  0.00000000E+00
  0.00000000E+00  0.00000000E+00  0.00000000E+00
  0.00000000E+00  0.00000000E+00  0.00000000E+00
  0.00000000E+00  0.00000000E+00  0.00000000E+00
  0.00000000E+00  0.00000000E+00  0.00000000E+00
  0.00000000E+00  0.00000000E+00  0.00000000E+00
  0.00000000E+00  0.00000000E+00  0.00000000E+00
  0.00000000E+00  0.00000000E+00  0.00000000E+00
  0.00000000E+00  0.00000000E+00  0.00000000E+00
  0.00000000E+00  0.00000000E+00  0.00000000E+00
  0.00000000E+00  0.00000000E+00  0.00000000E+00
  0.00000000E+00  0.00000000E+00  0.00000000E+00
  0.00000000E+00  0.00000000E+00  0.00000000E+00
  0.00000000E+00  0.00000000E+00  0.00000000E+00
  0.00000000E+00  0.00000000E+00  0.00000000E+00
  0.00000000E+00  0.00000000E+00  0.00000000E+00
  0.00000000E+00  0.00000000E+00  0.00000000E+00
  0.00000000E+00  0.00000000E+00  0.00000000E+00
  0.00000000E+00  0.00000000E+00  0.00000000E+00
  0.00000000E+00  0.00000000E+00  0.00000000E+00
  0.00000000E+00  0.00000000E+00  0.00000000E+00
  0.00000000E+00  0.00000000E+00  0.00000000E+00
  0.00000000E+00  0.00000000E+00  0.00000000E+00
  0.00000000E+00  0.00000000E+00  0.00000000E+00
  0.00000000E+00  0.00000000E+00  0.00000000E+00
  0.00000000E+00  0.00000000E+00  0.00000000E+00
  0.00000000E+00  0.00000000E+00  0.00000000E+00
  0.00000000E+00  0.00000000E+00  0.00000000E+00
  0.00000000E+00  0.00000000E+00  0.00000000E+00
  0.00000000E+00  0.00000000E+00  0.00000000E+00
  0.00000000E+00  0.00000000E+00  0.00000000E+00
  0.00000000E+00  0.00000000E+00  0.00000000E+00
  0.00000000E+00  0.00000000E+00  0.00000000E+00
  0.00000000E+00  0.00000000E+00  0.00000000E+00
  0.00000000E+00  0.00000000E+00  0.00000000E+00
  0.00000000E+00  0.00000000E+00  0.00000000E+00
  0.00000000E+00  0.00000000E+00  0.00000000E+00
  0.00000000E+00  0.00000000E+00  0.00000000E+00
  0.00000000E+00  0.00000000E+00  0.00000000E+00
  0.00000000E+00  0.00000000E+00  0.00000000E+00
  0.00000000E+00  0.00000000E+00  0.00000000E+00
  0.00000000E+00  0.00000000E+00  0.00000000E+00
  0.00000000E+00  0.00000000E+00  0.00000000E+00
  0.00000000E+00  0.00000000E+00  0.00000000E+00
  0.00000000E+00  0.00000000E+00  0.00000000E+00
  0.00000000E+00  0.00000000E+00  0.00000000E+00
  0.00000000E+00  0.00000000E+00  0.00000000E+00
  0.00000000E+00  0.00000000E+00  0.00000000E+00
