POSCAR-clean                            
   1.00000000000000     
    14.8588663937156369    0.0008149543821254    0.0000000000000000
    -7.4294331968078833   12.7557954064635890    0.0000000000000000
     0.0000000000000000    0.0000000000000000   15.0000000000000000
   C    N    C    Cr
    65     1     4     1
Direct
  0.9999048541265916  0.9998791875669782  0.4976488179563007
  0.0556993320537785  0.1113428952780550  0.4977201425487664
  0.1681701672663849  0.0019954053671622  0.4975420630697032
  0.2236003924650331  0.1133774481052447  0.4982539049918037
  0.3350249067515087  0.0020881175080133  0.4977399150342094
  0.3902251237556353  0.1132127182744045  0.4983897143773878
  0.5005608689361913  0.9993175768275518  0.4977923936211466
  0.5560786482825278  0.1105968525443165  0.4976974601414759
  0.6647170387030339  0.9973242423839795  0.4982479891021665
  0.7205128260672781  0.1083971142717313  0.4975513059776310
  0.8316609844179161  0.9979082723341358  0.4983645036723929
  0.8876170225743948  0.1091147869837882  0.4977431364662627
  0.9990033483455726  0.1654925530158227  0.4978202409581212
  0.0543137305322696  0.2767040850989989  0.4984891470903958
  0.1674251528925991  0.1681007718600306  0.4983547507470604
  0.2230902466525874  0.2797445896215641  0.5000852856324121
  0.3353107744356794  0.1701674714434746  0.4994002901829775
  0.3908235575375008  0.2813171195586197  0.5024962736111220
  0.5008309907705198  0.1673144459774628  0.4984207173060567
  0.5568319032194327  0.2792117638165524  0.5000309718479434
  0.6667573851592780  0.1656555124098876  0.4975378150810214
  0.7224599023119137  0.2765158733169253  0.4980189187334576
  0.8320096074110283  0.1642021617523471  0.4976230722601579
  0.8878842466392488  0.2759025931377398  0.4977616851740533
  0.9989349102848679  0.3320431865049280  0.4983167819630174
  0.0545265542131314  0.4438528274574172  0.4987615847618523
  0.1654897525705726  0.3329717037008234  0.5000357706262883
  0.2193790876100661  0.4440502921018536  0.5018091794240850
  0.3354001417469891  0.3379112156571746  0.5033936741611847
  0.3877993102564590  0.4487760793794393  0.5091643164884718
  0.5027872599900413  0.3375737300058446  0.5035350543171656
  0.5612128371887140  0.4483836017160858  0.5097318074735528
  0.6675680212153806  0.3327272441905190  0.4996637832703585
  0.7247751354871926  0.4437893620488392  0.5013241022435929
  0.8333626689559879  0.3320991722089017  0.4979077103835789
  0.8894754506991133  0.4436952741029549  0.4982434817995945
  0.0001354999792101  0.4998355874780870  0.4982556824590988
  0.0558621999760612  0.6112991911489878  0.4982686922389871
  0.1648327311411616  0.5000821940436930  0.5003592755207115
  0.2206811018325434  0.6116645545131401  0.5003172565091458
  0.3292014533742144  0.4995505016956266  0.5052753807018213
  0.3853889421830599  0.6122392016414938  0.5052350393679259
  0.6704626924648447  0.4992055021540125  0.5053270729680993
  0.7267302026540711  0.6118904046407224  0.5052388845331071
  0.8354464197490320  0.4997660418248546  0.4995822714240664
  0.8911733717434925  0.6112977916375875  0.4995759475186705
  0.0013720135760542  0.6673748015013932  0.4982637625663084
  0.0567938372230307  0.7790351459447967  0.4979109325511127
  0.1664139012248921  0.6672996616194116  0.4987749517943156
  0.2226886276481073  0.7790328073657613  0.4983041724093678
  0.3316444433889963  0.6678574213050781  0.5016284812577283
  0.3888224266479711  0.7792896187395636  0.4999530357076849
  0.4946548484756961  0.6636155715721319  0.5097250308830721
  0.5531748921044422  0.7744682093137142  0.5035913783534678
  0.6678975424323522  0.6623724613647152  0.5095162521573268
  0.7202507913492715  0.7734047616268707  0.5034882532106422
  0.8364993623445864  0.6672947048050202  0.5012464225936281
  0.8903798399130789  0.7784021791481084  0.4996435328107651
  0.0014461898207403  0.8345343837378437  0.4980262063716770
  0.0567292486641643  0.9457125670653509  0.4975276868911425
  0.1677429469018470  0.8350174146278025  0.4977424339886311
  0.2236914005327548  0.9463186099949593  0.4976112674981449
  0.3331274231951815  0.8342909532835084  0.4984599648769046
  0.3899696886544537  0.9453879367398408  0.4978351165493257
  0.4994890881859372  0.8326319744446828  0.5001305344379792
  0.5548806029919602  0.9431629866976696  0.4983833342014203
  0.6651662315686392  0.8297508515238524  0.5024798645175270
  0.7196009237971697  0.9407058084753114  0.4993473105470557
  0.8327426190119220  0.8316592404287562  0.5000364778106009
  0.8879824019425822  0.9431221827789760  0.4984271342062222
  0.5279201128970004  0.5558894297166331  0.5545531750828225
 
  0.00000000E+00  0.00000000E+00  0.00000000E+00
  0.00000000E+00  0.00000000E+00  0.00000000E+00
  0.00000000E+00  0.00000000E+00  0.00000000E+00
  0.00000000E+00  0.00000000E+00  0.00000000E+00
  0.00000000E+00  0.00000000E+00  0.00000000E+00
  0.00000000E+00  0.00000000E+00  0.00000000E+00
  0.00000000E+00  0.00000000E+00  0.00000000E+00
  0.00000000E+00  0.00000000E+00  0.00000000E+00
  0.00000000E+00  0.00000000E+00  0.00000000E+00
  0.00000000E+00  0.00000000E+00  0.00000000E+00
  0.00000000E+00  0.00000000E+00  0.00000000E+00
  0.00000000E+00  0.00000000E+00  0.00000000E+00
  0.00000000E+00  0.00000000E+00  0.00000000E+00
  0.00000000E+00  0.00000000E+00  0.00000000E+00
  0.00000000E+00  0.00000000E+00  0.00000000E+00
  0.00000000E+00  0.00000000E+00  0.00000000E+00
  0.00000000E+00  0.00000000E+00  0.00000000E+00
  0.00000000E+00  0.00000000E+00  0.00000000E+00
  0.00000000E+00  0.00000000E+00  0.00000000E+00
  0.00000000E+00  0.00000000E+00  0.00000000E+00
  0.00000000E+00  0.00000000E+00  0.00000000E+00
  0.00000000E+00  0.00000000E+00  0.00000000E+00
  0.00000000E+00  0.00000000E+00  0.00000000E+00
  0.00000000E+00  0.00000000E+00  0.00000000E+00
  0.00000000E+00  0.00000000E+00  0.00000000E+00
  0.00000000E+00  0.00000000E+00  0.00000000E+00
  0.00000000E+00  0.00000000E+00  0.00000000E+00
  0.00000000E+00  0.00000000E+00  0.00000000E+00
  0.00000000E+00  0.00000000E+00  0.00000000E+00
  0.00000000E+00  0.00000000E+00  0.00000000E+00
  0.00000000E+00  0.00000000E+00  0.00000000E+00
  0.00000000E+00  0.00000000E+00  0.00000000E+00
  0.00000000E+00  0.00000000E+00  0.00000000E+00
  0.00000000E+00  0.00000000E+00  0.00000000E+00
  0.00000000E+00  0.00000000E+00  0.00000000E+00
  0.00000000E+00  0.00000000E+00  0.00000000E+00
  0.00000000E+00  0.00000000E+00  0.00000000E+00
  0.00000000E+00  0.00000000E+00  0.00000000E+00
  0.00000000E+00  0.00000000E+00  0.00000000E+00
  0.00000000E+00  0.00000000E+00  0.00000000E+00
  0.00000000E+00  0.00000000E+00  0.00000000E+00
  0.00000000E+00  0.00000000E+00  0.00000000E+00
  0.00000000E+00  0.00000000E+00  0.00000000E+00
  0.00000000E+00  0.00000000E+00  0.00000000E+00
  0.00000000E+00  0.00000000E+00  0.00000000E+00
  0.00000000E+00  0.00000000E+00  0.00000000E+00
  0.00000000E+00  0.00000000E+00  0.00000000E+00
  0.00000000E+00  0.00000000E+00  0.00000000E+00
  0.00000000E+00  0.00000000E+00  0.00000000E+00
  0.00000000E+00  0.00000000E+00  0.00000000E+00
  0.00000000E+00  0.00000000E+00  0.00000000E+00
  0.00000000E+00  0.00000000E+00  0.00000000E+00
  0.00000000E+00  0.00000000E+00  0.00000000E+00
  0.00000000E+00  0.00000000E+00  0.00000000E+00
  0.00000000E+00  0.00000000E+00  0.00000000E+00
  0.00000000E+00  0.00000000E+00  0.00000000E+00
  0.00000000E+00  0.00000000E+00  0.00000000E+00
  0.00000000E+00  0.00000000E+00  0.00000000E+00
  0.00000000E+00  0.00000000E+00  0.00000000E+00
  0.00000000E+00  0.00000000E+00  0.00000000E+00
  0.00000000E+00  0.00000000E+00  0.00000000E+00
  0.00000000E+00  0.00000000E+00  0.00000000E+00
  0.00000000E+00  0.00000000E+00  0.00000000E+00
  0.00000000E+00  0.00000000E+00  0.00000000E+00
  0.00000000E+00  0.00000000E+00  0.00000000E+00
  0.00000000E+00  0.00000000E+00  0.00000000E+00
  0.00000000E+00  0.00000000E+00  0.00000000E+00
  0.00000000E+00  0.00000000E+00  0.00000000E+00
  0.00000000E+00  0.00000000E+00  0.00000000E+00
  0.00000000E+00  0.00000000E+00  0.00000000E+00
  0.00000000E+00  0.00000000E+00  0.00000000E+00
