POSCAR-clean                            
   1.00000000000000     
    14.8568849057999994    0.0000204971000000    0.0000000000000000
    -7.4284424527999997   12.7543188562999994    0.0000000000000000
     0.0000000000000000    0.0000000000000000   15.0000000000000000
   C    N    C    Cr   C    O 
    67     1     2     1     1     1
Direct
  0.9983286771121591  0.9992848519450535  0.4908225698795454
  0.0544779077798950  0.1107429429134455  0.4910666936105346
  0.1670536212107309  0.0015714280131715  0.4905290762522820
  0.2229394556855293  0.1129427785923043  0.4914166486082160
  0.3340328349765694  0.0019812156778902  0.4914227385284701
  0.3896719989192083  0.1133427248814280  0.4940590492346985
  0.5004863314635739  0.0010049423193774  0.4902932407789672
  0.5557828374523461  0.1124710570919916  0.4923724119453495
  0.6667134846525328  0.9984918321362685  0.4896446510511182
  0.7221351674763966  0.1098444219227608  0.4904894586649566
  0.8310404003320406  0.9980304294513228  0.4918428038501246
  0.8868176330115184  0.1094197999770108  0.4914674430199780
  0.9985856732353523  0.1653891397322586  0.4918213042195677
  0.0543113551642195  0.2769816937770677  0.4928618283065714
  0.1662170923860905  0.1672237101016542  0.4911209367644348
  0.2218879419866309  0.2785156629675415  0.4910918417419968
  0.3346002906000785  0.1695592774519510  0.4943644554080103
  0.3905335891350752  0.2810673491709211  0.4976300652574496
  0.5007873088781810  0.1692050293299425  0.4951964560695461
  0.5565154875389557  0.2810196840880420  0.4995081716247605
  0.6664704357891478  0.1660535288222925  0.4920673584951665
  0.7222339397324248  0.2774058561615731  0.4944048303956666
  0.8328025373426728  0.1661311954480194  0.4913337927191463
  0.8884038145414771  0.2774121543317737  0.4921520947290509
 -0.0005881051935400  0.3330526782887895  0.4929798533476425
  0.0548722742270972  0.4443192937421356  0.4931638253494594
  0.1654217651365125  0.3330392184206746  0.4929889718366032
  0.2204156068259305  0.4445204898806311  0.4944323905751592
  0.3339137170176942  0.3354366409977831  0.4919282679938152
  0.3873096168518253  0.4455416406093324  0.4912692016592329
  0.5022368013348572  0.3394410127210094  0.5041499890018758
  0.5592857601445399  0.4513072937038646  0.5144939127320002
  0.6673931911382558  0.3336035277149490  0.4988479841158076
  0.7238771257021697  0.4448527330232804  0.5009240176132671
  0.8333439274611577  0.3331146343844585  0.4931263743823526
  0.8892816260944530  0.4443971971917464  0.4934923448682781
  0.0000211313960933  0.5002155392040023  0.4924374690852792
  0.0556860267452601  0.6116828929351972  0.4918406356527555
  0.1656184803927981  0.5003104229292136  0.4942809378414184
  0.2214466964829406  0.6118226064654048  0.4931480925957424
  0.3310763668492618  0.5000606401423323  0.4898811505640023
  0.3877882730152091  0.6129821246353749  0.4877615209362679
  0.6698225029999435  0.5006293441759934  0.5080044780820872
  0.7252755397157991  0.6121091444655344  0.5072545947314088
  0.8346598876948419  0.5004070545912404  0.4962720995691763
  0.8900122418964788  0.6114876475781993  0.4955819582448102
  0.0007411413351368  0.6674184895304595  0.4924045910969814
  0.0560643658193708  0.7789197916818124  0.4914571656649567
  0.1665216103060553  0.6676638215660956  0.4916011501773890
  0.2224229303956419  0.7791146835261524  0.4905195202573087
  0.3320543873246902  0.6676743794298996  0.4915268593301214
  0.3885573872449804  0.7789462103735958  0.4889971990627592
  0.4986986633226225  0.6668908872146223  0.4838094867583063
  0.5547981229751591  0.7771090641332947  0.4866233323415308
  0.6643768878758022  0.6619751704782888  0.5136873377800423
  0.7191375751941852  0.7736418538783396  0.5018187842336019
  0.8347992126262047  0.6671316517828768  0.4991982763486776
  0.8893002309005328  0.7782444102668030  0.4961034311930714
  0.0002852248966456  0.8342688951762812  0.4921826385172416
  0.0553567891668376  0.9452927569926795  0.4906371069424442
  0.1670333603669728  0.8347647262190222  0.4904468706833255
  0.2228057620413490  0.9462705564418500  0.4906164718786299
  0.3335383099044818  0.8347865030589343  0.4897043203319033
  0.3895046988325713  0.9460272002682903  0.4901943649964457
  0.4993982098191869  0.8333048449636975  0.4871363842660458
  0.5557160428829842  0.9443446290536774  0.4888038830252438
  0.6659730393747351  0.8320784528031421  0.4939386704707919
  0.7209122628381583  0.9423932523644963  0.4916525406758306
  0.8314258231083771  0.8309189189330529  0.4964954372242627
  0.8862824467081066  0.9423528480827341  0.4922928656951016
  0.5124463174462135  0.5570767215461270  0.5410419080733587
  0.5184811506039123  0.5207158858992783  0.6622021261740598
  0.5202947664809097  0.5031709427962306  0.7376672846665580
 
  0.00000000E+00  0.00000000E+00  0.00000000E+00
  0.00000000E+00  0.00000000E+00  0.00000000E+00
  0.00000000E+00  0.00000000E+00  0.00000000E+00
  0.00000000E+00  0.00000000E+00  0.00000000E+00
  0.00000000E+00  0.00000000E+00  0.00000000E+00
  0.00000000E+00  0.00000000E+00  0.00000000E+00
  0.00000000E+00  0.00000000E+00  0.00000000E+00
  0.00000000E+00  0.00000000E+00  0.00000000E+00
  0.00000000E+00  0.00000000E+00  0.00000000E+00
  0.00000000E+00  0.00000000E+00  0.00000000E+00
  0.00000000E+00  0.00000000E+00  0.00000000E+00
  0.00000000E+00  0.00000000E+00  0.00000000E+00
  0.00000000E+00  0.00000000E+00  0.00000000E+00
  0.00000000E+00  0.00000000E+00  0.00000000E+00
  0.00000000E+00  0.00000000E+00  0.00000000E+00
  0.00000000E+00  0.00000000E+00  0.00000000E+00
  0.00000000E+00  0.00000000E+00  0.00000000E+00
  0.00000000E+00  0.00000000E+00  0.00000000E+00
  0.00000000E+00  0.00000000E+00  0.00000000E+00
  0.00000000E+00  0.00000000E+00  0.00000000E+00
  0.00000000E+00  0.00000000E+00  0.00000000E+00
  0.00000000E+00  0.00000000E+00  0.00000000E+00
  0.00000000E+00  0.00000000E+00  0.00000000E+00
  0.00000000E+00  0.00000000E+00  0.00000000E+00
  0.00000000E+00  0.00000000E+00  0.00000000E+00
  0.00000000E+00  0.00000000E+00  0.00000000E+00
  0.00000000E+00  0.00000000E+00  0.00000000E+00
  0.00000000E+00  0.00000000E+00  0.00000000E+00
  0.00000000E+00  0.00000000E+00  0.00000000E+00
  0.00000000E+00  0.00000000E+00  0.00000000E+00
  0.00000000E+00  0.00000000E+00  0.00000000E+00
  0.00000000E+00  0.00000000E+00  0.00000000E+00
  0.00000000E+00  0.00000000E+00  0.00000000E+00
  0.00000000E+00  0.00000000E+00  0.00000000E+00
  0.00000000E+00  0.00000000E+00  0.00000000E+00
  0.00000000E+00  0.00000000E+00  0.00000000E+00
  0.00000000E+00  0.00000000E+00  0.00000000E+00
  0.00000000E+00  0.00000000E+00  0.00000000E+00
  0.00000000E+00  0.00000000E+00  0.00000000E+00
  0.00000000E+00  0.00000000E+00  0.00000000E+00
  0.00000000E+00  0.00000000E+00  0.00000000E+00
  0.00000000E+00  0.00000000E+00  0.00000000E+00
  0.00000000E+00  0.00000000E+00  0.00000000E+00
  0.00000000E+00  0.00000000E+00  0.00000000E+00
  0.00000000E+00  0.00000000E+00  0.00000000E+00
  0.00000000E+00  0.00000000E+00  0.00000000E+00
  0.00000000E+00  0.00000000E+00  0.00000000E+00
  0.00000000E+00  0.00000000E+00  0.00000000E+00
  0.00000000E+00  0.00000000E+00  0.00000000E+00
  0.00000000E+00  0.00000000E+00  0.00000000E+00
  0.00000000E+00  0.00000000E+00  0.00000000E+00
  0.00000000E+00  0.00000000E+00  0.00000000E+00
  0.00000000E+00  0.00000000E+00  0.00000000E+00
  0.00000000E+00  0.00000000E+00  0.00000000E+00
  0.00000000E+00  0.00000000E+00  0.00000000E+00
  0.00000000E+00  0.00000000E+00  0.00000000E+00
  0.00000000E+00  0.00000000E+00  0.00000000E+00
  0.00000000E+00  0.00000000E+00  0.00000000E+00
  0.00000000E+00  0.00000000E+00  0.00000000E+00
  0.00000000E+00  0.00000000E+00  0.00000000E+00
  0.00000000E+00  0.00000000E+00  0.00000000E+00
  0.00000000E+00  0.00000000E+00  0.00000000E+00
  0.00000000E+00  0.00000000E+00  0.00000000E+00
  0.00000000E+00  0.00000000E+00  0.00000000E+00
  0.00000000E+00  0.00000000E+00  0.00000000E+00
  0.00000000E+00  0.00000000E+00  0.00000000E+00
  0.00000000E+00  0.00000000E+00  0.00000000E+00
  0.00000000E+00  0.00000000E+00  0.00000000E+00
  0.00000000E+00  0.00000000E+00  0.00000000E+00
  0.00000000E+00  0.00000000E+00  0.00000000E+00
  0.00000000E+00  0.00000000E+00  0.00000000E+00
  0.00000000E+00  0.00000000E+00  0.00000000E+00
  0.00000000E+00  0.00000000E+00  0.00000000E+00
