POSCAR-clean
1.0
14.8591925695 -0.009793846 0.0
-7.4295962847 12.7626307388 0.0
0.0 0.0 15.0
C N C Cr C O
64 1 5 1 1 1
Cartesian
0.0005939474 0.0054693258 7.3586782321
0.002573511 1.4284783798 7.3580871341
2.4765449614 0.0167508302 7.351623355
2.4753909926 1.4379084357 7.3637063041
4.9516785109 0.0102722707 7.3465234681
4.9523761691 1.4326230258 7.3522908395
0.004865128 12.7367840491 7.3610657024
7.436782599 1.3997502848 7.3615550259
2.469797015 12.720968719 7.3682369294
9.8994131309 1.3846400354 7.3541694142
4.9475830278 12.7352289838 7.3510478857
12.3774957223 1.3953380861 7.3453443398
13.6143029057 2.1121416107 7.351981146
-1.2459066746 3.5408093807 7.359277716
1.2415044931 2.1504358665 7.3683766458
1.2442016888 3.5810280581 7.4006980427
3.7144665756 2.1551818002 7.3675978048
3.713566969 3.5735301968 7.4016976554
6.1958142095 2.1206760243 7.3601594279
6.1963389992 3.5427748458 7.3708014786
8.6713130574 2.1032763063 7.3602226938
8.6735172963 3.5267116475 7.3766806283
11.1403422822 2.0995094108 7.3464130909
11.1425831465 3.5223912073 7.3489438187
12.3773894082 4.2365844003 7.3513526151
-2.4856686563 5.6719753474 7.3566797732
-0.0091224381 4.2570572092 7.3908239823
-0.0268610867 5.673073204 7.4140962302
2.4826282905 4.3262558372 7.4580448917
2.4613917575 5.7507680104 7.5740368198
4.9584927222 4.2674314737 7.3731603236
4.9837353752 5.6767747815 7.4222271924
7.441481667 4.2395632131 7.4051435193
7.4568763893 5.6567456029 7.4652378841
9.9073850849 4.2359064607 7.3689644167
9.910048096 5.658079429 7.38497459
-3.7161758791 6.3815861467 7.3621669097
-3.7174713743 7.8017179831 7.360733772
-1.2586268599 6.3865893081 7.379578012
-1.2603462187 7.8073003883 7.3789442704
1.1962472407 6.3799113873 7.4989055191
1.1911722871 7.8052817745 7.5081652978
6.2218119452 6.3636206505 7.4619369707
6.2206311227 7.8027965803 7.4534731933
8.684595536 6.3703498095 7.4397943107
8.6834577675 7.7940752683 7.435889662
-4.9492102764 8.5147394104 7.3804033543
-4.9512201039 9.9357112949 7.362990395
-2.4854606919 8.5127266675 7.3559433044
-2.4747480632 9.9327244038 7.3516694804
-0.0197453315 8.5189811122 7.4152651598
0.0004422865 9.9323189309 7.3929103363
2.4427559472 8.4494629536 7.6057538716
2.4634512173 9.8572052179 7.4795068009
4.9780469308 8.4849953109 7.4098924669
4.940998347 9.8924902438 7.3715868962
7.4548587373 8.5075325074 7.4546255924
7.4348409036 9.9237093923 7.3946752847
-6.1877360478 10.6454415259 7.3690822345
-6.1897928284 12.0659178478 7.3562379656
-3.7112749945 10.6461154009 7.3470329061
-3.7159289477 12.0652131069 7.3456570843
-1.2346827084 10.6425001131 7.3615423908
-1.2461163738 12.0583348792 7.3544006789
1.2342815687 10.6035188553 7.4057879498
1.2380980986 12.0144761136 7.3736190858
3.6977177195 10.6011429063 7.4082696822
3.7125711331 12.0143064963 7.3708110145
6.185706556 10.6183716059 7.3654895849
6.1893829126 12.0381000054 7.3572309535
3.9231796248 7.0823300099 8.1249231358
3.9231796248 7.0823300099 10.6049231358
3.6021656782 6.3564863172 11.4502603195