POSCAR-clean
1.0
14.8601789037 -0.0031452181 0.0
-7.4300894518 12.7501479922 0.0
0.0 0.0 15.0
C N C Cr C O
32 1 37 1 1 1
Cartesian
7.4307523337 12.7424422483 7.2542441229
0.0017192626 1.418716611 7.2556418068
2.4826152794 0.0241636418 7.2519344485
2.4831220518 1.4448741528 7.2621847355
4.9552368002 0.0294740329 7.2536701113
4.9571836775 1.4522006723 7.2625578059
7.4319059756 0.0001409189 7.2558664001
7.4310889635 1.4192028811 7.2538466545
2.4784430294 12.7263666017 7.2632720187
9.9083593299 1.3996359681 7.2533490334
4.95365533 12.7205602037 7.2648036255
12.3821340307 1.3904948384 7.2539220188
13.6182275734 2.1081628945 7.2553632556
-1.2469144896 3.5296493214 7.2655081605
1.2412597385 2.1430961135 7.2652507615
1.2423524316 3.565085597 7.2879988562
3.721203387 2.1691260264 7.2774994504
3.7288305528 3.586576092 7.3238271044
6.2043889429 2.1532258672 7.2609231975
6.2085100816 3.5737887905 7.2835240734
8.6665963138 2.1196814683 7.255045193
8.6676793157 3.5355013791 7.2642976162
11.1445061818 2.1028356756 7.252709496
11.1379068053 3.5207903378 7.2548875274
12.3744430728 4.234201882 7.2620949862
-2.4868750132 5.6578299444 7.2693330779
-0.0122225582 4.2445609378 7.2899202579
-0.0363603955 5.6603221044 7.3189007571
2.4851323796 4.3053500511 7.333522373
2.4372193446 5.7166716137 7.4213100333
4.9730189432 4.316859285 7.3473901827
4.9987877367 5.7284623273 7.4687015838
7.4488192056 4.2430285353 7.2828079652
7.4698407039 5.6460271071 7.2985193958
9.9030091203 4.2383512308 7.2600428767
9.9231009748 5.6580431732 7.2624869869
-3.7135940012 6.3726988759 7.2617327045
-3.7146295245 7.7944499336 7.261437259
-1.2647030431 6.3726360344 7.2956920259
-1.2654069918 7.7937656244 7.2964431859
1.1848280658 6.3667097725 7.3662668822
1.1841232245 7.7995548929 7.366085281
6.2611103845 6.3515599745 7.3658682288
6.2595843066 7.7854197812 7.3627700807
8.6988614641 6.3588140147 7.2776209917
8.6949279212 7.7821375167 7.279514527
-4.9407327574 8.5036114229 7.2619804715
-4.9460016586 9.9272694776 7.2573544157
-2.4875065414 8.5090620312 7.2689154667
-2.4821870086 9.930407067 7.2618791074
-0.0381379278 8.5072032754 7.3212223162
-0.0142942387 9.923526291 7.2909194506
2.4321108023 8.4531586625 7.4164209769
2.4752311995 9.8640285472 7.3307141106
5.0017087943 8.4243370374 7.4411687479
4.9583055573 9.8433078712 7.3445121533
7.471755972 8.49821871 7.3029636594
7.4472187522 9.9153104996 7.2839712469
-6.1810005703 10.6362507519 7.2605113938
-6.1840659541 12.0546929909 7.2526923357
-3.7135197915 10.6426968893 7.2536611273
-3.7122160273 12.0656267834 7.25208703
-1.2462922644 10.6400554882 7.2658773144
-1.242754601 12.0578896186 7.2554232041
1.2378858315 10.6044838815 7.2876774943
1.2395628963 12.026816281 7.2657491578
3.7183582006 10.5770888996 7.3241412862
3.7164151056 11.9978441251 7.2797770599
6.1943579612 10.5911383001 7.2904383077
6.1935940441 12.0174663149 7.2654489448
3.6742824541 7.0842553892 8.1261889723
3.6742824541 7.0842553892 14.1061889723
3.3532685075 6.3584116965 14.951526156