POSCAR-clean                            
   1.0000000000000000     
    14.8649094068000007    0.0036276382000000    0.0000000000000000
    -7.4324547033000004   12.7489017343000004    0.0000000000000000
     0.0000000000000000    0.0000000000000000   15.0000000000000000
   C    N    C    Cr   C    O 
    56     1    13     1     1     1
Direct
  0.9986416916285983  0.9989079547018463  0.4922446961957873
  0.0546836385906186  0.1107813509112772  0.4917215898909592
  0.1666714278094683  0.0012507877803647  0.4916729145618551
  0.2227721185054102  0.1129077810753682  0.4919807641026944
  0.3335681336348140  0.0020798405656520  0.4916341241480004
  0.3894636578178978  0.1136206073594973  0.4938977928586002
  0.4997337689780393  0.0010724924438318  0.4902813152281884
  0.5555093546150087  0.1128097504024163  0.4922327978093545
  0.6659337407783299  0.9988722515518328  0.4890946794764107
  0.7215939219213569  0.1104160158490300  0.4900649347065239
  0.8320257851038035  0.9980384985316687  0.4917759925507915
  0.8877035351923764  0.1097710945379319  0.4908631161283123
  0.9987885406640463  0.1657741346842133  0.4913540879112002
  0.0544323534148687  0.2772766638375647  0.4917688086966959
  0.1660895256567317  0.1672024887136639  0.4915823031036938
  0.2217921842989575  0.2786186934113725  0.4909058720264581
  0.3344787686069341  0.1697619391940044  0.4943145604070496
  0.3906956951383785  0.2815356183083544  0.4973346647753169
  0.5005615786437957  0.1695077425858010  0.4948305052085101
  0.5563786845983382  0.2814432069002594  0.4989462433834974
  0.6664789178131502  0.1667604954161121  0.4918421514430855
  0.7221516158109021  0.2779886656960609  0.4940559132087972
  0.8325315679570304  0.1658136883442823  0.4905254594725433
  0.8881726305580334  0.2775180691536367  0.4913482492373357
  0.9990590297945300  0.3329891132581513  0.4918618465396404
  0.0545607102567933  0.4443982931178902  0.4926434438629456
  0.1651647714839314  0.3330657159371366  0.4922471998853327
  0.2199425394787885  0.4444573834294552  0.4938006391240425
  0.3336444737402690  0.3355026291297807  0.4918836205864361
  0.3868521650232585  0.4455528740344449  0.4915685276524482
  0.5026236718480355  0.3401737813121899  0.5036239301555536
  0.5604709428587450  0.4524979012039742  0.5140860271637646
  0.6672426035453248  0.3337517816857367  0.4983696824569419
  0.7238686171137377  0.4448169114288570  0.5006370599941063
  0.8331951614449905  0.3335782996769386  0.4928213306739203
  0.8893548679620682  0.4451565722970433  0.4937951479403200
 -0.0003603631856397  0.5003808038418466  0.4928875932387977
  0.0549234757405590  0.6117119892631254  0.4929347555175787
  0.1650071302200494  0.5003028311317280  0.4937049109747882
  0.2206025342631271  0.6118530636625354  0.4931468903972925
  0.3302910439184020  0.4997311679332977  0.4900567895757229
  0.3865152627167452  0.6125773458844155  0.4880648461152044
  0.6710219596369880  0.5008743862239842  0.5077163107616247
  0.7268694187246931  0.6125019480435953  0.5076456105258585
  0.8344637466188755  0.5011784897605160  0.4966948115174624
  0.8898497292251855  0.6121569221022820  0.4967352643808633
  0.0000306739564217  0.6677868984767600  0.4941236810256748
  0.0561403623978467  0.7789697352065044  0.4932334096177461
  0.1657190485601829  0.6676683491216598  0.4921672606049823
  0.2219915667491688  0.7790658679720027  0.4911109518339971
  0.3311380104862828  0.6676698752826782  0.4917003571580690
  0.3880157055582774  0.7788897810829389  0.4892210068302863
  0.4968157497018192  0.6661920522575882  0.4842445082051855
  0.5537640183333757  0.7759272192389454  0.4869108670976729
  0.6660229544789810  0.6611143023738388  0.5131236797337050
  0.7186106130800100  0.7723930195988890  0.5007362587606203
  0.8351675177368439  0.6669602209585610  0.5000068788777509
  0.8888002449984259  0.7769319945270549  0.4973229888453907
 -0.0004727612433944  0.8330821413090780  0.4940759283667301
  0.0550701365920824  0.9446916958244655  0.4924042998919657
  0.1667005193447326  0.8347102183272721  0.4915564977481965
  0.2225298757025214  0.9463007468706848  0.4914091464245487
  0.3329156767798939  0.8347774202695019  0.4899663505594749
  0.3888175032550961  0.9461498151840750  0.4903769820463875
  0.4990834501182488  0.8333042465272004  0.4871353002217684
  0.5548193219816177  0.9446526125602046  0.4885585082123979
  0.6651936508982852  0.8304818606388393  0.4931851218418489
  0.7207475137067506  0.9419653318051764  0.4909974142394311
  0.8307946166172312  0.8297114296302902  0.4967721793448226
  0.8874306965522061  0.9421563165055454  0.4930882142934119
  0.5130411337916906  0.5569616213793591  0.5395265505681434
  0.5216764190082807  0.5210055928323841  0.6594408197047574
  0.5261948210229259  0.5028291497545192  0.7344050622060598

  0.00000000E+00  0.00000000E+00  0.00000000E+00
  0.00000000E+00  0.00000000E+00  0.00000000E+00
  0.00000000E+00  0.00000000E+00  0.00000000E+00
  0.00000000E+00  0.00000000E+00  0.00000000E+00
  0.00000000E+00  0.00000000E+00  0.00000000E+00
  0.00000000E+00  0.00000000E+00  0.00000000E+00
  0.00000000E+00  0.00000000E+00  0.00000000E+00
  0.00000000E+00  0.00000000E+00  0.00000000E+00
  0.00000000E+00  0.00000000E+00  0.00000000E+00
  0.00000000E+00  0.00000000E+00  0.00000000E+00
  0.00000000E+00  0.00000000E+00  0.00000000E+00
  0.00000000E+00  0.00000000E+00  0.00000000E+00
  0.00000000E+00  0.00000000E+00  0.00000000E+00
  0.00000000E+00  0.00000000E+00  0.00000000E+00
  0.00000000E+00  0.00000000E+00  0.00000000E+00
  0.00000000E+00  0.00000000E+00  0.00000000E+00
  0.00000000E+00  0.00000000E+00  0.00000000E+00
  0.00000000E+00  0.00000000E+00  0.00000000E+00
  0.00000000E+00  0.00000000E+00  0.00000000E+00
  0.00000000E+00  0.00000000E+00  0.00000000E+00
  0.00000000E+00  0.00000000E+00  0.00000000E+00
  0.00000000E+00  0.00000000E+00  0.00000000E+00
  0.00000000E+00  0.00000000E+00  0.00000000E+00
  0.00000000E+00  0.00000000E+00  0.00000000E+00
  0.00000000E+00  0.00000000E+00  0.00000000E+00
  0.00000000E+00  0.00000000E+00  0.00000000E+00
  0.00000000E+00  0.00000000E+00  0.00000000E+00
  0.00000000E+00  0.00000000E+00  0.00000000E+00
  0.00000000E+00  0.00000000E+00  0.00000000E+00
  0.00000000E+00  0.00000000E+00  0.00000000E+00
  0.00000000E+00  0.00000000E+00  0.00000000E+00
  0.00000000E+00  0.00000000E+00  0.00000000E+00
  0.00000000E+00  0.00000000E+00  0.00000000E+00
  0.00000000E+00  0.00000000E+00  0.00000000E+00
  0.00000000E+00  0.00000000E+00  0.00000000E+00
  0.00000000E+00  0.00000000E+00  0.00000000E+00
  0.00000000E+00  0.00000000E+00  0.00000000E+00
  0.00000000E+00  0.00000000E+00  0.00000000E+00
  0.00000000E+00  0.00000000E+00  0.00000000E+00
  0.00000000E+00  0.00000000E+00  0.00000000E+00
  0.00000000E+00  0.00000000E+00  0.00000000E+00
  0.00000000E+00  0.00000000E+00  0.00000000E+00
  0.00000000E+00  0.00000000E+00  0.00000000E+00
  0.00000000E+00  0.00000000E+00  0.00000000E+00
  0.00000000E+00  0.00000000E+00  0.00000000E+00
  0.00000000E+00  0.00000000E+00  0.00000000E+00
  0.00000000E+00  0.00000000E+00  0.00000000E+00
  0.00000000E+00  0.00000000E+00  0.00000000E+00
  0.00000000E+00  0.00000000E+00  0.00000000E+00
  0.00000000E+00  0.00000000E+00  0.00000000E+00
  0.00000000E+00  0.00000000E+00  0.00000000E+00
  0.00000000E+00  0.00000000E+00  0.00000000E+00
  0.00000000E+00  0.00000000E+00  0.00000000E+00
  0.00000000E+00  0.00000000E+00  0.00000000E+00
  0.00000000E+00  0.00000000E+00  0.00000000E+00
  0.00000000E+00  0.00000000E+00  0.00000000E+00
  0.00000000E+00  0.00000000E+00  0.00000000E+00
  0.00000000E+00  0.00000000E+00  0.00000000E+00
  0.00000000E+00  0.00000000E+00  0.00000000E+00
  0.00000000E+00  0.00000000E+00  0.00000000E+00
  0.00000000E+00  0.00000000E+00  0.00000000E+00
  0.00000000E+00  0.00000000E+00  0.00000000E+00
  0.00000000E+00  0.00000000E+00  0.00000000E+00
  0.00000000E+00  0.00000000E+00  0.00000000E+00
  0.00000000E+00  0.00000000E+00  0.00000000E+00
  0.00000000E+00  0.00000000E+00  0.00000000E+00
  0.00000000E+00  0.00000000E+00  0.00000000E+00
  0.00000000E+00  0.00000000E+00  0.00000000E+00
  0.00000000E+00  0.00000000E+00  0.00000000E+00
  0.00000000E+00  0.00000000E+00  0.00000000E+00
  0.00000000E+00  0.00000000E+00  0.00000000E+00
  0.00000000E+00  0.00000000E+00  0.00000000E+00
  0.00000000E+00  0.00000000E+00  0.00000000E+00
