POSCAR-clean
1.0
14.85919256954974 -0.0097938459989895 0.0
-7.429596284724935 12.762630738812026 0.0
0.0 0.0 15.0
C N C Cr
64 1 5 1
Cartesian
0.0005939474 0.0054693258 0.0133338923
0.002573511 1.4284783798 0.0127427943
2.4765449614 0.0167508302 0.0062790152
2.4753909926 1.4379084357 0.0183619643
4.9516785109 0.0102722707 0.0011791283
4.9523761691 1.4326230258 0.0069464997
0.004865128 12.7367840491 0.0157213626
7.436782599 1.3997502848 0.0162106861
2.469797015 12.720968719 0.0228925896
9.8994131309 1.3846400354 0.0088250744
4.9475830278 12.7352289838 0.0057035459
12.3774957223 1.3953380861 0.0
13.6143029057 2.1121416107 0.0066368062
-1.2459066746 3.5408093807 0.0139333762
1.2415044931 2.1504358665 0.023032306
1.2442016888 3.5810280581 0.0553537029
3.7144665756 2.1551818002 0.022253465
3.713566969 3.5735301968 0.0563533156
6.1958142095 2.1206760243 0.0148150881
6.1963389992 3.5427748458 0.0254571388
8.6713130574 2.1032763063 0.014878354
8.6735172963 3.5267116475 0.0313362885
11.1403422822 2.0995094108 0.0010687511
11.1425831465 3.5223912073 0.0035994789
12.3773894082 4.2365844003 0.0060082753
-2.4856686563 5.6719753474 0.0113354334
-0.0091224381 4.2570572092 0.0454796425
-0.0268610867 5.673073204 0.0687518904
2.4826282905 4.3262558372 0.1127005519
2.4613917575 5.7507680104 0.22869248
4.9584927222 4.2674314737 0.0278159838
4.9837353752 5.6767747815 0.0768828526
7.441481667 4.2395632131 0.0597991795
7.4568763893 5.6567456029 0.1198935443
9.9073850849 4.2359064607 0.0236200769
9.910048096 5.658079429 0.0396302502
-3.7161758791 6.3815861467 0.0168225699
-3.7174713743 7.8017179831 0.0153894322
-1.2586268599 6.3865893081 0.0342336722
-1.2603462187 7.8073003883 0.0335999306
1.1962472407 6.3799113873 0.1535611793
1.1911722871 7.8052817745 0.162820958
6.2218119452 6.3636206505 0.1165926309
6.2206311227 7.8027965803 0.1081288535
8.684595536 6.3703498095 0.0944499709
8.6834577675 7.7940752683 0.0905453222
-4.9492102764 8.5147394104 0.0350590145
-4.9512201039 9.9357112949 0.0176460552
-2.4854606919 8.5127266675 0.0105989646
-2.4747480632 9.9327244038 0.0063251406
-0.0197453315 8.5189811122 0.06992082
0.0004422865 9.9323189309 0.0475659965
2.4427559472 8.4494629536 0.2604095318
2.4634512173 9.8572052179 0.1341624611
4.9780469308 8.4849953109 0.0645481271
4.940998347 9.8924902438 0.0262425564
7.4548587373 8.5075325074 0.1092812526
7.4348409036 9.9237093923 0.0493309449
-6.1877360478 10.6454415259 0.0237378947
-6.1897928284 12.0659178478 0.0108936258
-3.7112749945 10.6461154009 0.0016885663
-3.7159289477 12.0652131069 0.0003127445
-1.2346827084 10.6425001131 0.016198051
-1.2461163738 12.0583348792 0.0090563391
1.2342815687 10.6035188553 0.06044361
1.2380980986 12.0144761136 0.028274746
3.6977177195 10.6011429063 0.0629253424
3.7125711331 12.0143064963 0.0254666747
6.185706556 10.6183716059 0.0201452451
6.1893829126 12.0381000054 0.0118866137
3.9231796248 7.0823300099 0.779578796