POSCAR-c3n4                             
   1.1599999999999999     
    13.8434242346000005   -0.1907404740000000    0.0000000000000000
    -6.9217121173999994   11.6951909939000007    0.0000000000000000
     0.0000000000000000    0.0000000000000000   15.0000000000000000
   C    N    Ge   C    O 
    24    32     1     1     1
Direct
  0.0060852954470505  0.1621997886912538  0.4702270608584698
  0.3561772746877878  0.3830618207491554  0.4387895504677033
  0.0348952003345531  0.3297793105909648  0.4649581874130462
  0.5257837668410872  0.1137915636148534  0.5046649000449221
  0.5020114073062274  0.3969250088154581  0.4475469856116376
  0.0105623147112013  0.0177851990234785  0.4751582941662207
  0.0260463737478389  0.7269290853212667  0.4843622585282716
  0.4029884919178386  0.9556916737313870  0.4956783158715439
  0.0071946918344636  0.8729618001958741  0.4975365887842429
  0.4735979936639296  0.5310269472357589  0.4856677417597126
  0.5499716207762759  0.9725450457837042  0.4964707467277449
  0.0951425133745261  0.5064005713663988  0.4844127112867298
  0.6616480799508437  0.2678292795644381  0.5058439287344925
  0.8088229285872828  0.4201619843310951  0.4682140709572735
  0.6505387470182100  0.4199350605409151  0.4759922199745574
  0.8642720740920353  0.0184594037373103  0.5052556209115409
  0.9274597500486550  0.3852267381676810  0.4467351822493768
  0.6866429228821787  0.1385241488173037  0.5253395089022490
  0.6078123876651489  0.6851273753787765  0.5105561831030201
  0.7258183467845072  0.8527868604246649  0.5361466788719369
  0.7024104268235334  0.0024825553119854  0.5179804599829936
  0.9639420566093406  0.5515067331049153  0.4802917305456091
  0.8772792331951749  0.8757200248748589  0.5439208282756454
  0.6359090710246562  0.5561125472534911  0.4932129942270080
  0.0598381358821243  0.2610720165642419  0.4680884550620945
  0.0548936968409208  0.1130796593104435  0.4578381148218469
  0.4285976553039461  0.0488136619365349  0.5028684514494799
  0.5626756151849222  0.3632598476665336  0.4432445857406861
  0.4080788336182977  0.3429574558236865  0.4247818628488957
  0.5647169227079729  0.2116329931230112  0.5035130262188119
  0.0518360611260462  0.9623673319223158  0.4643713803042999
  0.9149227178965447  0.9685775089421185  0.5067632714476247
  0.0439411515156820  0.8114738517564888  0.4808288697129441
  0.1723779119632454  0.5916413101891962  0.4997994235592742
  0.3769878669187250  0.4683038625502576  0.4686699387005717
  0.6106965598290870  0.9391530504924432  0.4959402466191989
  0.4526135199437107  0.9114887344972402  0.4890077532595498
  0.5084401413619872  0.6236265065979580  0.5069622649788030
  0.1059057599950393  0.4241761957961216  0.4842832409804458
  0.9973258114328871  0.4852706169513468  0.4718113555160741
  0.7067826959804862  0.3714974317193196  0.4861039029695604
  0.7213726136512264  0.2360808312607858  0.5285166337443954
  0.7630993854226205  0.9595990163768704  0.5207179222670959
  0.9471547540632912  0.3144870023251229  0.4398926138350916
  0.8348786055434942  0.3626381109085841  0.4340935956473331
  0.9069216698195675  0.1113503712557531  0.4861496456330840
  0.7412913526331053  0.0978630192170939  0.5382997578552207
  0.5872625993487190  0.0747579313745348  0.5059258769379582
  0.6383053304137221  0.7840297881778824  0.5151414258080607
  0.6712790025929039  0.6522017209236495  0.5045404858698745
  0.8691220434511067  0.5164487546077865  0.4865526164303517
  0.9294429265795969  0.8317561619616640  0.5445782574366049
  0.7875439442055736  0.8311844233112140  0.5700443612114725
  0.0298438845127791  0.6502529404348607  0.4823086422889560
  0.6912208920894898  0.5141679707604965  0.4982124499371210
  0.5356478997845429  0.4928743881010718  0.4769197904674414
  0.2408688113403770  0.5269211095222914  0.5354356546744157
  0.2331469088261855  0.5574988816391695  0.7315592383365868
  0.2580746304887214  0.5498475270201624  0.7912721390462281

  0.00000000E+00  0.00000000E+00  0.00000000E+00
  0.00000000E+00  0.00000000E+00  0.00000000E+00
  0.00000000E+00  0.00000000E+00  0.00000000E+00
  0.00000000E+00  0.00000000E+00  0.00000000E+00
  0.00000000E+00  0.00000000E+00  0.00000000E+00
  0.00000000E+00  0.00000000E+00  0.00000000E+00
  0.00000000E+00  0.00000000E+00  0.00000000E+00
  0.00000000E+00  0.00000000E+00  0.00000000E+00
  0.00000000E+00  0.00000000E+00  0.00000000E+00
  0.00000000E+00  0.00000000E+00  0.00000000E+00
  0.00000000E+00  0.00000000E+00  0.00000000E+00
  0.00000000E+00  0.00000000E+00  0.00000000E+00
  0.00000000E+00  0.00000000E+00  0.00000000E+00
  0.00000000E+00  0.00000000E+00  0.00000000E+00
  0.00000000E+00  0.00000000E+00  0.00000000E+00
  0.00000000E+00  0.00000000E+00  0.00000000E+00
  0.00000000E+00  0.00000000E+00  0.00000000E+00
  0.00000000E+00  0.00000000E+00  0.00000000E+00
  0.00000000E+00  0.00000000E+00  0.00000000E+00
  0.00000000E+00  0.00000000E+00  0.00000000E+00
  0.00000000E+00  0.00000000E+00  0.00000000E+00
  0.00000000E+00  0.00000000E+00  0.00000000E+00
  0.00000000E+00  0.00000000E+00  0.00000000E+00
  0.00000000E+00  0.00000000E+00  0.00000000E+00
  0.00000000E+00  0.00000000E+00  0.00000000E+00
  0.00000000E+00  0.00000000E+00  0.00000000E+00
  0.00000000E+00  0.00000000E+00  0.00000000E+00
  0.00000000E+00  0.00000000E+00  0.00000000E+00
  0.00000000E+00  0.00000000E+00  0.00000000E+00
  0.00000000E+00  0.00000000E+00  0.00000000E+00
  0.00000000E+00  0.00000000E+00  0.00000000E+00
  0.00000000E+00  0.00000000E+00  0.00000000E+00
  0.00000000E+00  0.00000000E+00  0.00000000E+00
  0.00000000E+00  0.00000000E+00  0.00000000E+00
  0.00000000E+00  0.00000000E+00  0.00000000E+00
  0.00000000E+00  0.00000000E+00  0.00000000E+00
  0.00000000E+00  0.00000000E+00  0.00000000E+00
  0.00000000E+00  0.00000000E+00  0.00000000E+00
  0.00000000E+00  0.00000000E+00  0.00000000E+00
  0.00000000E+00  0.00000000E+00  0.00000000E+00
  0.00000000E+00  0.00000000E+00  0.00000000E+00
  0.00000000E+00  0.00000000E+00  0.00000000E+00
  0.00000000E+00  0.00000000E+00  0.00000000E+00
  0.00000000E+00  0.00000000E+00  0.00000000E+00
  0.00000000E+00  0.00000000E+00  0.00000000E+00
  0.00000000E+00  0.00000000E+00  0.00000000E+00
  0.00000000E+00  0.00000000E+00  0.00000000E+00
  0.00000000E+00  0.00000000E+00  0.00000000E+00
  0.00000000E+00  0.00000000E+00  0.00000000E+00
  0.00000000E+00  0.00000000E+00  0.00000000E+00
  0.00000000E+00  0.00000000E+00  0.00000000E+00
  0.00000000E+00  0.00000000E+00  0.00000000E+00
  0.00000000E+00  0.00000000E+00  0.00000000E+00
  0.00000000E+00  0.00000000E+00  0.00000000E+00
  0.00000000E+00  0.00000000E+00  0.00000000E+00
  0.00000000E+00  0.00000000E+00  0.00000000E+00
  0.00000000E+00  0.00000000E+00  0.00000000E+00
  0.00000000E+00  0.00000000E+00  0.00000000E+00
  0.00000000E+00  0.00000000E+00  0.00000000E+00
